 C  N  H Co  O                          
   1.00000000000000     
    11.1395953049292658  -19.2959895207139844    0.0000000000000000
    11.1364979328500873   19.2942010821614964    0.0000000000000000
     0.0000000000000000    0.0000000000000000   27.7423831521563571
   C    N    H    Co   O 
   259    24    49     3     2
Direct
  0.9999004225109727  0.9997139078207772  0.0663613508772846
  0.0370185818717952  0.0738489870381632  0.0653782123742505
  0.9999711204708384  0.1108816696805044  0.0658532493988599
  0.0370606992819070  0.1849857195588679  0.0644862855755051
 -0.0000028877968278  0.2220348301805529  0.0647720954430051
  0.0370235111001530  0.2960863129667975  0.0628068216865412
  0.9999454106473202  0.3330829131161471  0.0628731052901396
  0.0370217381506871  0.4071780989952305  0.0610180201347071
  0.9999070024744267  0.4441433174469170  0.0617382408699390
  0.0369649131124732  0.5182231236109617  0.0614976444288276
  0.9998609701884716  0.5552193107058888  0.0626170963973405
  0.0368947798739890  0.6292655630213688  0.0637695830448206
  0.9997717769602905  0.6662487811141977  0.0646509876768895
  0.0368428752692309  0.7403473871609856  0.0660146850838164
  0.9997771112813192  0.7773651732066882  0.0663376301165145
  0.0368770263175430  0.8515016948520028  0.0668962474789400
  0.9998365771334334  0.8885524389062379  0.0667584339498836
  0.0369401643644149  0.9626726539633726  0.0663200137684171
  0.1110494925382490  0.9997776644778648  0.0650184890124704
  0.1480958560673692  0.0738258268778975  0.0626083591711320
  0.1110783161244050  0.1108908401286941  0.0630453488398889
  0.1480845438163403  0.1849280739657081  0.0610430828410410
  0.1110863902575393  0.2219876823345254  0.0620690379120495
  0.1481051628432374  0.2960858744209272  0.0601117605637730
  0.1110819643287781  0.3331404667204671  0.0602583959400704
  0.1480551986241785  0.4071601366248865  0.0576608706333830
  0.1110178442726439  0.4442009145011158  0.0582804668521313
  0.1480510323199039  0.5182651865161911  0.0572720709099848
  0.1110396844391981  0.5552421746404159  0.0598847574775450
  0.1480695639659174  0.6293336994020094  0.0612036789541910
  0.1110060277985447  0.6662912127484478  0.0636389017275495
  0.1480356102151080  0.7403783012523537  0.0651276976798555
  0.1109560447845779  0.7773981374888852  0.0663235999338996
  0.1480068464876302  0.8514993496411509  0.0667239819680853
  0.1109689199484196  0.8885730185723323  0.0667579124432541
  0.1480571664622809  0.9626966707330261  0.0655231247552155
  0.2221376807193858  0.9997868465630420  0.0642599860953563
  0.2591210949954306  0.0737964888532363  0.0614634679001253
  0.2220972481888379  0.1108308986427292  0.0602189192578627
  0.2590893131989957  0.1848599775043624  0.0580570709935053
  0.2220932662393273  0.2219403022372442  0.0584603327276921
  0.2590838500489466  0.2959944897820288  0.0575232032689409
  0.2221036767337005  0.3330902162447318  0.0579551524989822
  0.2590719446691948  0.4071426709524065  0.0564063305342250
  0.2220673190360705  0.4441825219090798  0.0557745854735007
  0.2591485656167027  0.5183233134219426  0.0548035802627743
  0.2221203194211212  0.5553379743231581  0.0555807065256685
  0.2591899619270446  0.6294239154513005  0.0570998182455953
  0.2221705388455818  0.6663702327257968  0.0602053744631877
  0.2591604097619660  0.7403813490339436  0.0628023134035710
  0.2220981056329891  0.7773979453235164  0.0649315641319145
  0.2591473010016746  0.8515149697532485  0.0660117553742604
  0.2221000311946003  0.8885703766805152  0.0663879362920691
  0.2591589285105784  0.9627047826429698  0.0654263127869073
  0.3332101277448398  0.9997447812801891  0.0649970117537692
  0.3702160326772255  0.0738475893710815  0.0630400476725987
  0.3331826293362010  0.1108392880567263  0.0607558569601371
  0.3701605257663253  0.1848611542381710  0.0584957800893127
  0.3330909909458510  0.2218658736737463  0.0572049093861667
  0.3701670296372406  0.2959582550322474  0.0566892914690636
  0.3331442587101290  0.3330329246059318  0.0569327095764423
  0.3702067766191373  0.4071362869717609  0.0570375446486114
  0.3331834298222801  0.4442035554795317  0.0564074381191408
  0.3702815605575832  0.5183109756866029  0.0559478328641106
  0.3331921748322264  0.5553384023849035  0.0551496746370830
  0.3703003268625225  0.6293961723613547  0.0562689407613795
  0.3332203961047903  0.6663912984387924  0.0576161980123806
  0.3702571836012242  0.7403808007874333  0.0607351377726182
  0.3332425167963383  0.7774155164436986  0.0629883999297839
  0.3702737294220910  0.8514879942691539  0.0649887833412055
  0.3332296472914463  0.8885615667845597  0.0659038226252090
  0.3702456534296001  0.9626697883367796  0.0658664735132540
  0.4443255788785926  0.9997124531710202  0.0657765333538669
  0.4813393759167757  0.0738304974204004  0.0646450580196688
  0.4443062439767232  0.1108904625927549  0.0629019279876874
  0.4813042028781538  0.1849251617735811  0.0604354918681772
  0.4442406766717064  0.2219088650866233  0.0583701674581835
  0.4813301406317937  0.2959562796944202  0.0565817040335540
  0.4442430425143470  0.3329752223332831  0.0564118507130339
  0.4813523753744620  0.4070409151172281  0.0565779104847651
  0.4443048473485421  0.4441219548548334  0.0573417752592489
  0.4813793047762741  0.5182124931410965  0.0572138922076430
  0.4443274741767519  0.5552771035834372  0.0566176708009599
  0.4814471963930331  0.6293603414119372  0.0566097866638453
  0.4443450777143323  0.6663561116342769  0.0572367689788381
  0.4814170438704699  0.7403899963169263  0.0593123500617205
  0.4443518493319756  0.7773851578841561  0.0614329511685901
  0.4813531382817977  0.8514267546948824  0.0638008301504664
  0.4443283493177843  0.8884976551929172  0.0652080457664043
  0.4813521697096005  0.9626354613638431  0.0659837052624752
  0.5554208773061451  0.9996631060729761  0.0660868608531396
  0.5924306714845945  0.0737717288758113  0.0657426168610122
  0.5553947508910343  0.1108427257228902  0.0644793702761099
  0.5924242198768778  0.1849139070429988  0.0622533056082804
  0.5554161785711094  0.2219470586672406  0.0598094370122041
  0.5924528966470342  0.2959262152442500  0.0567615559274106
  0.5553637163025887  0.3329294020023270  0.0556320277029022
  0.5924674306287085  0.4069913530484158  0.0548138520878301
  0.5554001989040599  0.4440250572437790  0.0557520388243097
  0.5924998188112015  0.5181370952102889  0.0561707757384426
  0.5554881458579449  0.5552091789529475  0.0567543359055568
  0.5925407536160324  0.6292976360547686  0.0566490481008442
  0.5554899351527042  0.6663556303845740  0.0567404948060319
  0.5925573609038011  0.7404346256582758  0.0577044120075973
  0.5555054875150677  0.7774250006466461  0.0594770728153905
  0.5924883709549776  0.8514477822023440  0.0619540643858946
  0.5554416460617391  0.8884524179963547  0.0640323352555060
  0.5924533356795101  0.9625613239293568  0.0656258504610286
  0.6665114426113833  0.9996117797261785  0.0659637263080585
  0.7035639074933318  0.0737586393106170  0.0664918580317723
  0.6665216088569409  0.1108237835365791  0.0658371277249105
  0.7035587935030447  0.1849216076290774  0.0645124799117031
  0.6665030836213645  0.2219438156007253  0.0621594221791270
  0.7034893098452364  0.2959461234720260  0.0595064533510157
  0.6664879718141815  0.3329009320584651  0.0563779840714196
  0.7035669555571522  0.4070007205708146  0.0552124135081689
  0.6665362826475381  0.4440151677362186  0.0546286015303255
  0.7036173300709034  0.5181516498569543  0.0558165694169857
  0.6665986734997055  0.5551922521877609  0.0563086668469716
  0.7035645738268820  0.6292425829405192  0.0578296244434085
  0.6665874347325276  0.6663224821947906  0.0572965279667018
  0.7035916680617249  0.7403934895321984  0.0585307446710831
  0.6665813724129013  0.7774498435959571  0.0585448190125270
  0.7035714703288388  0.8514564332686899  0.0610817919496268
  0.6665474238246474  0.8884919092297699  0.0625625671011153
  0.7035379787815524  0.9625312395346597  0.0650387984005621
  0.7776300789746206  0.9996356346030623  0.0659989659528015
  0.8147133057960947  0.0737601137273250  0.0668844244068562
  0.7776524786417709  0.1108247611570461  0.0667042213049960
  0.8147070817685114  0.1849252308451388  0.0660769664117794
  0.7776254892331894  0.2219354285432800  0.0647531912644443
  0.8146560485696563  0.2960326885129682  0.0632287615244785
  0.7775902035768776  0.3330018483284351  0.0607148785448277
  0.8146282450641745  0.4070816614338907  0.0595854609089044
  0.7776148696520339  0.4440856726883108  0.0571010748629950
  0.8146453541371910  0.5181345255972173  0.0584011145300229
  0.7776018519588009  0.5551660202987547  0.0578866296190162
  0.8145880769426986  0.6292104943776841  0.0605023017999247
  0.7775623492253623  0.6662498857421060  0.0601950800641731
  0.8145951821236057  0.7403428076405106  0.0621774468890532
  0.7775849022879432  0.7773958472620283  0.0611931409498377
  0.8146014349188241  0.8514272240558801  0.0633876190424193
  0.7775851565367145  0.8884899006346356  0.0632357738405525
  0.8146413562148590  0.9625567175545255  0.0655144803958209
  0.8887532676382821  0.9996764831265823  0.0665465369456074
  0.9258560035822908  0.0737926174323739  0.0668011904210318
  0.8888100154584090  0.1108347745512738  0.0668875228847638
  0.9259011571611686  0.1849675668603762  0.0661494201081530
  0.8888260389262987  0.2219820678436561  0.0657367400509016
  0.9258843067847260  0.2960653581283035  0.0643267879810775
  0.8887585500780963  0.3330547416434881  0.0634371703763327
  0.9257858541370471  0.4070992901612102  0.0624037501578621
  0.8886858745973533  0.4440871170062722  0.0613650799028889
  0.9257476363795080  0.5181769350918436  0.0618419189915094
  0.8886417654304807  0.5551507478848421  0.0612296093945982
  0.9257089344485923  0.6292324121870189  0.0631795605052662
  0.8886264689063615  0.6662391706369233  0.0630841658180024
  0.9256662684831423  0.7402965198956488  0.0649977451883464
  0.8886114996029472  0.7773461025751230  0.0646560025435140
  0.9257257293216115  0.8514694478513790  0.0659571660287410
  0.8886773104187011  0.8884929557080004  0.0655723559748001
  0.9257877451582975  0.9626242603945639  0.0664737113839703
  0.2703478094147749  0.1363622028375832  0.1702068076366885
  0.3394302541588449  0.1899514530275090  0.1705652832213962
  0.3519765556287081  0.2579038718931581  0.1709442743064513
  0.2968014568003432  0.2718213495030230  0.1705025265725648
  0.2279209105302835  0.2183800131150653  0.1698956916852679
  0.2153985998544087  0.1503340466784313  0.1700431840032460
  0.3280569388159552  0.3470176035850543  0.1716545683485173
  0.4157623426276587  0.3251388213426619  0.1723838242281585
  0.3195713889711182  0.4459122341947937  0.1707977424039073
  0.3952504412669518  0.5600005041311586  0.1716189909666808
  0.2786914329565348  0.4803837491699532  0.1682832453333845
  0.3262336145168678  0.5522184089426120  0.1687765989117354
  0.3035719893498174  0.6002689735646569  0.1671739651361071
  0.2320928338479222  0.5746164109077064  0.1653621035838626
  0.1846742556530264  0.5029821805370955  0.1651367263255092
  0.2073942990371193  0.4548030021250221  0.1663742962402372
  0.5348517451660182  0.3924689700856159  0.1716902978586728
  0.6106282356262462  0.5065467774378196  0.1712575934675456
  0.6262506358636815  0.3519151034732059  0.1675675203468156
  0.6977032215396373  0.3773262249925045  0.1660009325297319
  0.7452409504733768  0.4489173426264720  0.1657434031317889
  0.7227305953089789  0.4972918604263891  0.1670340997460498
  0.6514773217633300  0.4719640870967568  0.1687981606456054
  0.6037974771477609  0.4001345756550532  0.1690742602602583
  0.6020776809702979  0.6054642680404140  0.1721175948642805
  0.5143389929480922  0.6273621085670874  0.1728614763326006
  0.6333042592006118  0.6806777452687253  0.1710911782341342
  0.7021586814508015  0.7341679809271516  0.1705200600315708
  0.7146489888486505  0.8021996681757436  0.1708694636106960
  0.6596899461958667  0.8161621702675733  0.1712846885559790
  0.5906289319662665  0.7625398694115521  0.1715821372676035
  0.5781147551092493  0.6945883364606505  0.1716451311486360
  0.2699404908713283  0.1364332761188283  0.2900129567171649
  0.3389891723771803  0.1900939109026154  0.2899343994936559
  0.3513551023965412  0.2578900848724227  0.2891055597160507
  0.2962847294740841  0.2718985629115268  0.2887086869273869
  0.2274816532447878  0.2184835599634087  0.2891302918641452
  0.2150352045990325  0.1504092564691994  0.2896130874569505
  0.3277292112908703  0.3471273153204530  0.2867208131814273
  0.4151524604054906  0.3248971600855710  0.2872946907577318
  0.3195316679255280  0.4460891869103401  0.2858505832968694
  0.3956803984589752  0.5599402472169674  0.2866160089516461
  0.2789361410001986  0.4810122819655313  0.2861962431428401
  0.3268716919834767  0.5527221028671935  0.2867068145413305
  0.3048317227078616  0.6012493255093021  0.2858338666580362
  0.2334356755283848  0.5762007160289453  0.2840087873629026
  0.1856506896976731  0.5046967178699470  0.2835146673346133
  0.2077892864765069  0.4560214283772461  0.2848098774921662
  0.5341478396683900  0.3914613978445881  0.2866692222336512
  0.6103382128072375  0.5052991329952333  0.2863541926800230
  0.6248786319778910  0.3500185102413631  0.2863369853486122
  0.6962665969876853  0.3749644917894625  0.2848289101355223
  0.7440995591642989  0.4464553825673603  0.2844668047293628
  0.7220434249460171  0.4952063939013120  0.2856574971985212
  0.6509027382062784  0.4703179425220269  0.2867969740730529
  0.6029202910677919  0.3986165510509840  0.2870916332293041
  0.6021304277493705  0.6042708878811581  0.2873671581743598
  0.5146836063468293  0.6265214007035156  0.2878362819658295
  0.6335433432216769  0.6794964090709078  0.2894636702454391
  0.7023415019049430  0.7329013530105314  0.2900137320040997
  0.7147952072524867  0.8009755552528072  0.2906643911382233
  0.6598983602229973  0.8149598524006293  0.2910585782575971
  0.5908445630337819  0.7613083491462369  0.2907880361911018
  0.5784763100277402  0.6935089112410865  0.2898343765508613
  0.2697670822060245  0.1361051076518678  0.4132202433619340
  0.3387704590732862  0.1896628119091872  0.4113514514788142
  0.3510782546593170  0.2574975314627063  0.4092309927579458
  0.2959418811812604  0.2714780261615958  0.4090174114885579
  0.2270467686686421  0.2180474113792847  0.4107713242967493
  0.2146996956116036  0.1500854010234480  0.4128845251365581
  0.3272495955761837  0.3465758744715487  0.4062840666815126
  0.4147743618559443  0.3243973983079818  0.4065343118153076
  0.3190684927099621  0.4457129486735780  0.4069958537531178
  0.3956477751648200  0.5597512818341299  0.4080575636377858
  0.2787751376226050  0.4808451708309116  0.4078712346634324
  0.3269155977460790  0.5525761612197453  0.4084576911828937
  0.3050465046257734  0.6013457689584136  0.4076280271111345
  0.2336760749660896  0.5764413836026988  0.4068839965767629
  0.1856047251878568  0.5047989691070068  0.4064808017568362
  0.2075217869700264  0.4559578228351528  0.4066763085392557
  0.5340012720167985  0.3911432241575631  0.4077964898481147
  0.6104050368508319  0.5052646987160306  0.4079893710876936
  0.6248472788311156  0.3498103522408740  0.4080289149950673
  0.6962630925477276  0.3749119227655107  0.4077045077386083
  0.7441706509639282  0.4466019144508968  0.4074450216435784
  0.7220556596538672  0.4952832271289902  0.4076092555139269
  0.6507618230681618  0.4701942645450768  0.4086286311787394
  0.6027574078904846  0.3984264478280493  0.4087197663009631
  0.6024653667472675  0.6045593065465246  0.4078078629716702
  0.5149516483282045  0.6265988756217702  0.4082356321801401
  0.6338219160221743  0.6797327854586735  0.4106081881692071
  0.7026843872406959  0.7332465596198583  0.4119995233362223
  0.7149641263742802  0.8012118166012271  0.4139688665595210
  0.6598576753427076  0.8150942482664046  0.4142935000192841
  0.5908559932500070  0.7614413999684209  0.4126589896502308
  0.5786302013738838  0.6936251395576600  0.4109423605790984
  0.4643625111995424  0.4765140061794202  0.4759415176403494
  0.4001709277913090  0.3784559682991693  0.1732741257747634
  0.2902724831206593  0.3775765510051456  0.1704492652892186
  0.3900607079020432  0.4949052228453467  0.1730095644218645
  0.4778636077146641  0.3309801314790115  0.1717421770319831
  0.5401106600486970  0.4575949652250911  0.1732208788031041
  0.6398692192369160  0.5748816889565282  0.1709691602321462
  0.5299734621070561  0.5740492262618453  0.1736519916179809
  0.4522168746196754  0.6214899287310133  0.1720531767057466
  0.3998408720944068  0.3784424493742608  0.2855916747418677
  0.2899929074560409  0.3777783860447284  0.2864728713322365
  0.3902469433568473  0.4947561624353319  0.2854693926443697
  0.4769675918296452  0.3302097704441040  0.2875574726767774
  0.5396391614954673  0.4566943136612686  0.2856685843793872
  0.6398634535723812  0.5736155351363685  0.2871392790417016
  0.5300256454973928  0.5729886116127060  0.2860955557899491
  0.4528620974480990  0.6211969237592277  0.2878713296436788
  0.3990682773456188  0.3774789591396978  0.4040296971339655
  0.2896318320704306  0.3773909146518762  0.4073600025833070
  0.3896082792830779  0.4944308724335774  0.4063717657845032
  0.4766771621018119  0.3299632425997034  0.4079155503162572
  0.5398631143538450  0.4564431334420833  0.4069314419341500
  0.6399617233661112  0.5736060116210010  0.4087497039461869
  0.5307450528672154  0.5737078689481989  0.4053794333834275
  0.4529722223113323  0.6208974639087486  0.4092903569095261
  0.2587010348561345  0.0826455143864578  0.1702340830342224
  0.3822306660078360  0.1794722934419970  0.1710057000085378
  0.1857959330496039  0.2298748624450642  0.1697610475046471
  0.1621806845487275  0.1072614859219457  0.1698749065762878
  0.3406055089790624  0.6556951359242280  0.1676040547595593
  0.2125997582419122  0.6107818776695897  0.1640398039112951
  0.1293145959435526  0.4849293812438863  0.1638868619753998
  0.1711808788176703  0.3991774086819476  0.1662708561020956
  0.5890698684702422  0.2965147312441573  0.1679171526837131
  0.7170302501948794  0.3410222773332208  0.1648244699573559
  0.8005829051083502  0.4668316549527000  0.1645747249477299
  0.7591180112052781  0.5528695111648159  0.1670839552583106
  0.7442990739100942  0.7226890110724655  0.1701608852160186
  0.7678682466523803  0.8452689875571716  0.1707082567788607
  0.6713010780591889  0.8698664508367071  0.1715546391012501
  0.5477755609322680  0.7729320003126615  0.1721985165027413
  0.2583625066230249  0.0827019033557617  0.2898175361051507
  0.3819794690727146  0.1798629310005383  0.2899334532262454
  0.1853257654219594  0.2299497653181588  0.2884853836824516
  0.1617853413030392  0.1072794194500964  0.2890976555001347
  0.3423711016727474  0.6565827347434171  0.2857668033150871
  0.2143995091786245  0.6127459675658330  0.2822771607217310
  0.1303650291653759  0.4869835314395448  0.2813763050131270
  0.1712819945064303  0.4004435800895674  0.2839465315076367
  0.5872591261901612  0.2947068948144071  0.2861176575023505
  0.7152540292584354  0.3383693823373983  0.2831901941652766
  0.7993976786673946  0.4641246063512591  0.2825396779314705
  0.7586266957366696  0.5507696596801982  0.2849010523764460
  0.7444827088967279  0.7214145344272358  0.2893895145957532
  0.7680486499490355  0.8440987448468852  0.2903610404364106
  0.6714830149564202  0.8686940377832535  0.2910437016658907
  0.5478607805897635  0.7715488833797155  0.2907387542420215
  0.2581425842375442  0.0823626090573979  0.4139644012771581
  0.3817533585940229  0.1794214035800329  0.4107136344299688
  0.1848665116304884  0.2294666574645950  0.4096461225208677
  0.1614699617485993  0.1069046469438247  0.4132913703732038
  0.3427032163917061  0.6566229641060167  0.4065157970464067
  0.2146966458806737  0.6130590937853965  0.4055947915419520
  0.1303264856909127  0.4873130792991460  0.4049359915152300
  0.1709053196005144  0.4004476026717506  0.4049010941690590
  0.5873328572803665  0.2945003379539973  0.4067503317868620
  0.7154332631346360  0.3384413546819715  0.4065905017153167
  0.7994976395001473  0.4642770811706837  0.4060574828037464
  0.7585195599573552  0.5508344103387266  0.4059093275318407
  0.7449318392521278  0.7219329008349251  0.4107015890167015
  0.7681830086625772  0.8444313974253357  0.4143118243000509
  0.6714214649015844  0.8688225127615358  0.4148755004917452
  0.5478825994391541  0.7716860142119107  0.4118555872188543
  0.4402305737476893  0.4184394690068204  0.5305089925958129
  0.4650974446207639  0.4762890538149837  0.1763931253123918
  0.4649987260896283  0.4757940254847933  0.2831265290684128
  0.4646487373161035  0.4753478299612329  0.4083110945157719
  0.4380375243551386  0.4115962452603741  0.4954174698674917
  0.4848410178918338  0.5284244800113118  0.5003293067894254
 
  0.00000000E+00  0.00000000E+00  0.00000000E+00
  0.00000000E+00  0.00000000E+00  0.00000000E+00
  0.00000000E+00  0.00000000E+00  0.00000000E+00
  0.00000000E+00  0.00000000E+00  0.00000000E+00
  0.00000000E+00  0.00000000E+00  0.00000000E+00
  0.00000000E+00  0.00000000E+00  0.00000000E+00
  0.00000000E+00  0.00000000E+00  0.00000000E+00
  0.00000000E+00  0.00000000E+00  0.00000000E+00
  0.00000000E+00  0.00000000E+00  0.00000000E+00
  0.00000000E+00  0.00000000E+00  0.00000000E+00
  0.00000000E+00  0.00000000E+00  0.00000000E+00
  0.00000000E+00  0.00000000E+00  0.00000000E+00
  0.00000000E+00  0.00000000E+00  0.00000000E+00
  0.00000000E+00  0.00000000E+00  0.00000000E+00
  0.00000000E+00  0.00000000E+00  0.00000000E+00
  0.00000000E+00  0.00000000E+00  0.00000000E+00
  0.00000000E+00  0.00000000E+00  0.00000000E+00
  0.00000000E+00  0.00000000E+00  0.00000000E+00
  0.00000000E+00  0.00000000E+00  0.00000000E+00
  0.00000000E+00  0.00000000E+00  0.00000000E+00
  0.00000000E+00  0.00000000E+00  0.00000000E+00
  0.00000000E+00  0.00000000E+00  0.00000000E+00
  0.00000000E+00  0.00000000E+00  0.00000000E+00
  0.00000000E+00  0.00000000E+00  0.00000000E+00
  0.00000000E+00  0.00000000E+00  0.00000000E+00
  0.00000000E+00  0.00000000E+00  0.00000000E+00
  0.00000000E+00  0.00000000E+00  0.00000000E+00
  0.00000000E+00  0.00000000E+00  0.00000000E+00
  0.00000000E+00  0.00000000E+00  0.00000000E+00
  0.00000000E+00  0.00000000E+00  0.00000000E+00
  0.00000000E+00  0.00000000E+00  0.00000000E+00
  0.00000000E+00  0.00000000E+00  0.00000000E+00
  0.00000000E+00  0.00000000E+00  0.00000000E+00
  0.00000000E+00  0.00000000E+00  0.00000000E+00
  0.00000000E+00  0.00000000E+00  0.00000000E+00
  0.00000000E+00  0.00000000E+00  0.00000000E+00
  0.00000000E+00  0.00000000E+00  0.00000000E+00
  0.00000000E+00  0.00000000E+00  0.00000000E+00
  0.00000000E+00  0.00000000E+00  0.00000000E+00
  0.00000000E+00  0.00000000E+00  0.00000000E+00
  0.00000000E+00  0.00000000E+00  0.00000000E+00
  0.00000000E+00  0.00000000E+00  0.00000000E+00
  0.00000000E+00  0.00000000E+00  0.00000000E+00
  0.00000000E+00  0.00000000E+00  0.00000000E+00
  0.00000000E+00  0.00000000E+00  0.00000000E+00
  0.00000000E+00  0.00000000E+00  0.00000000E+00
  0.00000000E+00  0.00000000E+00  0.00000000E+00
  0.00000000E+00  0.00000000E+00  0.00000000E+00
  0.00000000E+00  0.00000000E+00  0.00000000E+00
  0.00000000E+00  0.00000000E+00  0.00000000E+00
  0.00000000E+00  0.00000000E+00  0.00000000E+00
  0.00000000E+00  0.00000000E+00  0.00000000E+00
  0.00000000E+00  0.00000000E+00  0.00000000E+00
  0.00000000E+00  0.00000000E+00  0.00000000E+00
  0.00000000E+00  0.00000000E+00  0.00000000E+00
  0.00000000E+00  0.00000000E+00  0.00000000E+00
  0.00000000E+00  0.00000000E+00  0.00000000E+00
  0.00000000E+00  0.00000000E+00  0.00000000E+00
  0.00000000E+00  0.00000000E+00  0.00000000E+00
  0.00000000E+00  0.00000000E+00  0.00000000E+00
  0.00000000E+00  0.00000000E+00  0.00000000E+00
  0.00000000E+00  0.00000000E+00  0.00000000E+00
  0.00000000E+00  0.00000000E+00  0.00000000E+00
  0.00000000E+00  0.00000000E+00  0.00000000E+00
  0.00000000E+00  0.00000000E+00  0.00000000E+00
  0.00000000E+00  0.00000000E+00  0.00000000E+00
  0.00000000E+00  0.00000000E+00  0.00000000E+00
  0.00000000E+00  0.00000000E+00  0.00000000E+00
  0.00000000E+00  0.00000000E+00  0.00000000E+00
  0.00000000E+00  0.00000000E+00  0.00000000E+00
  0.00000000E+00  0.00000000E+00  0.00000000E+00
  0.00000000E+00  0.00000000E+00  0.00000000E+00
  0.00000000E+00  0.00000000E+00  0.00000000E+00
  0.00000000E+00  0.00000000E+00  0.00000000E+00
  0.00000000E+00  0.00000000E+00  0.00000000E+00
  0.00000000E+00  0.00000000E+00  0.00000000E+00
  0.00000000E+00  0.00000000E+00  0.00000000E+00
  0.00000000E+00  0.00000000E+00  0.00000000E+00
  0.00000000E+00  0.00000000E+00  0.00000000E+00
  0.00000000E+00  0.00000000E+00  0.00000000E+00
  0.00000000E+00  0.00000000E+00  0.00000000E+00
  0.00000000E+00  0.00000000E+00  0.00000000E+00
  0.00000000E+00  0.00000000E+00  0.00000000E+00
  0.00000000E+00  0.00000000E+00  0.00000000E+00
  0.00000000E+00  0.00000000E+00  0.00000000E+00
  0.00000000E+00  0.00000000E+00  0.00000000E+00
  0.00000000E+00  0.00000000E+00  0.00000000E+00
  0.00000000E+00  0.00000000E+00  0.00000000E+00
  0.00000000E+00  0.00000000E+00  0.00000000E+00
  0.00000000E+00  0.00000000E+00  0.00000000E+00
  0.00000000E+00  0.00000000E+00  0.00000000E+00
  0.00000000E+00  0.00000000E+00  0.00000000E+00
  0.00000000E+00  0.00000000E+00  0.00000000E+00
  0.00000000E+00  0.00000000E+00  0.00000000E+00
  0.00000000E+00  0.00000000E+00  0.00000000E+00
  0.00000000E+00  0.00000000E+00  0.00000000E+00
  0.00000000E+00  0.00000000E+00  0.00000000E+00
  0.00000000E+00  0.00000000E+00  0.00000000E+00
  0.00000000E+00  0.00000000E+00  0.00000000E+00
  0.00000000E+00  0.00000000E+00  0.00000000E+00
  0.00000000E+00  0.00000000E+00  0.00000000E+00
  0.00000000E+00  0.00000000E+00  0.00000000E+00
  0.00000000E+00  0.00000000E+00  0.00000000E+00
  0.00000000E+00  0.00000000E+00  0.00000000E+00
  0.00000000E+00  0.00000000E+00  0.00000000E+00
  0.00000000E+00  0.00000000E+00  0.00000000E+00
  0.00000000E+00  0.00000000E+00  0.00000000E+00
  0.00000000E+00  0.00000000E+00  0.00000000E+00
  0.00000000E+00  0.00000000E+00  0.00000000E+00
  0.00000000E+00  0.00000000E+00  0.00000000E+00
  0.00000000E+00  0.00000000E+00  0.00000000E+00
  0.00000000E+00  0.00000000E+00  0.00000000E+00
  0.00000000E+00  0.00000000E+00  0.00000000E+00
  0.00000000E+00  0.00000000E+00  0.00000000E+00
  0.00000000E+00  0.00000000E+00  0.00000000E+00
  0.00000000E+00  0.00000000E+00  0.00000000E+00
  0.00000000E+00  0.00000000E+00  0.00000000E+00
  0.00000000E+00  0.00000000E+00  0.00000000E+00
  0.00000000E+00  0.00000000E+00  0.00000000E+00
  0.00000000E+00  0.00000000E+00  0.00000000E+00
  0.00000000E+00  0.00000000E+00  0.00000000E+00
  0.00000000E+00  0.00000000E+00  0.00000000E+00
  0.00000000E+00  0.00000000E+00  0.00000000E+00
  0.00000000E+00  0.00000000E+00  0.00000000E+00
  0.00000000E+00  0.00000000E+00  0.00000000E+00
  0.00000000E+00  0.00000000E+00  0.00000000E+00
  0.00000000E+00  0.00000000E+00  0.00000000E+00
  0.00000000E+00  0.00000000E+00  0.00000000E+00
  0.00000000E+00  0.00000000E+00  0.00000000E+00
  0.00000000E+00  0.00000000E+00  0.00000000E+00
  0.00000000E+00  0.00000000E+00  0.00000000E+00
  0.00000000E+00  0.00000000E+00  0.00000000E+00
  0.00000000E+00  0.00000000E+00  0.00000000E+00
  0.00000000E+00  0.00000000E+00  0.00000000E+00
  0.00000000E+00  0.00000000E+00  0.00000000E+00
  0.00000000E+00  0.00000000E+00  0.00000000E+00
  0.00000000E+00  0.00000000E+00  0.00000000E+00
  0.00000000E+00  0.00000000E+00  0.00000000E+00
  0.00000000E+00  0.00000000E+00  0.00000000E+00
  0.00000000E+00  0.00000000E+00  0.00000000E+00
  0.00000000E+00  0.00000000E+00  0.00000000E+00
  0.00000000E+00  0.00000000E+00  0.00000000E+00
  0.00000000E+00  0.00000000E+00  0.00000000E+00
  0.00000000E+00  0.00000000E+00  0.00000000E+00
  0.00000000E+00  0.00000000E+00  0.00000000E+00
  0.00000000E+00  0.00000000E+00  0.00000000E+00
  0.00000000E+00  0.00000000E+00  0.00000000E+00
  0.00000000E+00  0.00000000E+00  0.00000000E+00
  0.00000000E+00  0.00000000E+00  0.00000000E+00
  0.00000000E+00  0.00000000E+00  0.00000000E+00
  0.00000000E+00  0.00000000E+00  0.00000000E+00
  0.00000000E+00  0.00000000E+00  0.00000000E+00
  0.00000000E+00  0.00000000E+00  0.00000000E+00
  0.00000000E+00  0.00000000E+00  0.00000000E+00
  0.00000000E+00  0.00000000E+00  0.00000000E+00
  0.00000000E+00  0.00000000E+00  0.00000000E+00
  0.00000000E+00  0.00000000E+00  0.00000000E+00
  0.00000000E+00  0.00000000E+00  0.00000000E+00
  0.00000000E+00  0.00000000E+00  0.00000000E+00
  0.00000000E+00  0.00000000E+00  0.00000000E+00
  0.00000000E+00  0.00000000E+00  0.00000000E+00
  0.00000000E+00  0.00000000E+00  0.00000000E+00
  0.00000000E+00  0.00000000E+00  0.00000000E+00
  0.00000000E+00  0.00000000E+00  0.00000000E+00
  0.00000000E+00  0.00000000E+00  0.00000000E+00
  0.00000000E+00  0.00000000E+00  0.00000000E+00
  0.00000000E+00  0.00000000E+00  0.00000000E+00
  0.00000000E+00  0.00000000E+00  0.00000000E+00
  0.00000000E+00  0.00000000E+00  0.00000000E+00
  0.00000000E+00  0.00000000E+00  0.00000000E+00
  0.00000000E+00  0.00000000E+00  0.00000000E+00
  0.00000000E+00  0.00000000E+00  0.00000000E+00
  0.00000000E+00  0.00000000E+00  0.00000000E+00
  0.00000000E+00  0.00000000E+00  0.00000000E+00
  0.00000000E+00  0.00000000E+00  0.00000000E+00
  0.00000000E+00  0.00000000E+00  0.00000000E+00
  0.00000000E+00  0.00000000E+00  0.00000000E+00
  0.00000000E+00  0.00000000E+00  0.00000000E+00
  0.00000000E+00  0.00000000E+00  0.00000000E+00
  0.00000000E+00  0.00000000E+00  0.00000000E+00
  0.00000000E+00  0.00000000E+00  0.00000000E+00
  0.00000000E+00  0.00000000E+00  0.00000000E+00
  0.00000000E+00  0.00000000E+00  0.00000000E+00
  0.00000000E+00  0.00000000E+00  0.00000000E+00
  0.00000000E+00  0.00000000E+00  0.00000000E+00