 C  N  H Co  O                          
   1.00000000000000     
    11.1395953049292658  -19.2959895207139844    0.0000000000000000
    11.1364979328500873   19.2942010821614964    0.0000000000000000
     0.0000000000000000    0.0000000000000000   27.7423831521563571
   C    N    H    Co   O 
   259    24    48     3     1
Direct
  0.9999003376929068  0.9996899639318997  0.0661848372507592
  0.0370166720525944  0.0738255857386534  0.0652107323928703
  0.9999738374279801  0.1108632617523142  0.0656908537674212
  0.0370641624204424  0.1849696161026770  0.0643243090067998
  0.9999997304523589  0.2220180503391589  0.0646217866303189
  0.0370252304417491  0.2960686034108804  0.0626583595272976
  0.9999433205725552  0.3330620674648515  0.0627336903244213
  0.0370235628212612  0.4071554384886085  0.0608922209029288
  0.9999068298675553  0.4441187501167150  0.0615984793523410
  0.0369632796165789  0.5181980565734960  0.0613604510326056
  0.9998519630771909  0.5551876905976059  0.0624554070465919
  0.0368875967819307  0.6292321967207073  0.0635994374460722
  0.9997665356541177  0.6662197910310041  0.0644726229433772
  0.0368343955724555  0.7403156875151637  0.0658382914163553
  0.9997697816719437  0.7773367125682995  0.0661634630455268
  0.0368703315651899  0.8514735961930242  0.0667289048556867
  0.9998299690095180  0.8885256896667215  0.0665948113435206
  0.0369376906740371  0.9626456450262779  0.0661544656005475
  0.1110494691638948  0.9997503791117950  0.0648574282792822
  0.1480955591487287  0.0738000597479811  0.0624639809080207
  0.1110781480143288  0.1108691002989488  0.0628938616247297
  0.1480840335969447  0.1849034953581423  0.0608864807666478
  0.1110889247522806  0.2219682361314952  0.0618961349908531
  0.1481100503823640  0.2960663019819449  0.0599516288494399
  0.1110857347374505  0.3331179641088866  0.0601164796070677
  0.1480594856221487  0.4071353327216300  0.0575550905715758
  0.1110225602977906  0.4441744762052267  0.0581855901597521
  0.1480552284150818  0.5182317748179628  0.0571950312942064
  0.1110406420195531  0.5552095105523307  0.0597777561806154
  0.1480696712173923  0.6292997871860422  0.0610846982801618
  0.1109986180976748  0.6662524749589593  0.0634814864033046
  0.1480284463360491  0.7403416420331723  0.0649663997680250
  0.1109490534713018  0.7773647255095000  0.0661549388917493
  0.1479991588017455  0.8514660362250694  0.0665515163666441
  0.1109629975075563  0.8885417079600941  0.0665800135398413
  0.1480554588897078  0.9626660948073678  0.0653567259430048
  0.2221368094108485  0.9997562734272165  0.0641127882334160
  0.2591230950147789  0.0737663138289193  0.0613433479895917
  0.2220999196372944  0.1108039810728272  0.0601059869853700
  0.2590947830736212  0.1848324147462890  0.0579511138862969
  0.2220964731855375  0.2219110984142887  0.0583241690380021
  0.2590866499522733  0.2959612088855224  0.0573680465692448
  0.2221084540888896  0.3330608881571280  0.0577932132428671
  0.2590759201931121  0.4071087974957024  0.0562642972981777
  0.2220719420094710  0.4441503157034319  0.0556742037168121
  0.2591538476489177  0.5182924834657427  0.0547271766146054
  0.2221272567736108  0.5553041895287549  0.0555167506187075
  0.2591945052305675  0.6293912910588659  0.0570064335672242
  0.2221728533673897  0.6663357805153254  0.0600911266691000
  0.2591567570472364  0.7403460874204981  0.0626640363378499
  0.2220912072536692  0.7773602567318889  0.0647801003908839
  0.2591379910352671  0.8514763023114540  0.0658597778521326
  0.2220913101286399  0.8885321845696623  0.0662298458598300
  0.2591531171674504  0.9626687994495242  0.0652748762602400
  0.3332029660922586  0.9997093375754034  0.0648514038771211
  0.3702166811513337  0.0738140856928595  0.0629015269366420
  0.3331863015637850  0.1108061176971944  0.0606365146036083
  0.3701634064133401  0.1848282259167391  0.0583937594828043
  0.3330984612503869  0.2218365124143276  0.0571070297970451
  0.3701719738076150  0.2959292674064642  0.0565756733445824
  0.3331460468947753  0.3329998207193654  0.0567947411059606
  0.3702078329910776  0.4071062123560125  0.0568977913275646
  0.3331882306531142  0.4441731740855204  0.0562663690243710
  0.3702856069399516  0.5182810895310439  0.0558209100328213
  0.3331979556232980  0.5553094729293662  0.0550450987011075
  0.3703028343622918  0.6293688118336931  0.0561452817734036
  0.3332217836703961  0.6663634988322968  0.0574905647604211
  0.3702581004654704  0.7403528276807236  0.0605816648322133
  0.3332411100664316  0.7773824638795901  0.0628352657849973
  0.3702690561019466  0.8514540309893235  0.0648288102474197
  0.3332229723282580  0.8885245085273326  0.0657595639587996
  0.3702382349974229  0.9626327683614164  0.0657163791253765
  0.4443196583364681  0.9996760252813530  0.0656087036693904
  0.4813371889769797  0.0737960922624055  0.0644821767628869
  0.4443066195143572  0.1108554702622442  0.0627554187150707
  0.4813054089926467  0.1848904222655392  0.0603039666464014
  0.4442419632606445  0.2218787058159464  0.0582612321297802
  0.4813295241136473  0.2959298580647882  0.0564805622788782
  0.4442432775983036  0.3329487662567274  0.0563038301409264
  0.4813534734138329  0.4070161724426669  0.0564596224013556
  0.4443066119194725  0.4440977892664080  0.0572286213972788
  0.4813845645835784  0.5181893510443274  0.0570994598781454
  0.4443282726996145  0.5552504278251220  0.0564885499170558
  0.4814454687098717  0.6293326817769227  0.0564796611049303
  0.4443469083392415  0.6663313451588735  0.0571054798489072
  0.4814179826014566  0.7403672066878926  0.0591831316189015
  0.4443520758520521  0.7773599224995777  0.0612749321294785
  0.4813493673885887  0.8514007729813571  0.0636324958264396
  0.4443214081904685  0.8884647501836653  0.0650410741203018
  0.4813449573993864  0.9626008761110967  0.0658122879341292
  0.5554139647781540  0.9996366786368753  0.0659271720431676
  0.5924259514628787  0.0737446786590041  0.0655830816175538
  0.5553909839648199  0.1108148515032781  0.0643162426449777
  0.5924231665888868  0.1848911175343630  0.0621070814600984
  0.5554147926498203  0.2219234401200509  0.0596857357361671
  0.5924497047431672  0.2959075531187523  0.0566724466844448
  0.5553579868709804  0.3329045818461154  0.0555433738220543
  0.5924629518207780  0.4069678936409815  0.0547231479798498
  0.5553966591528265  0.4440008662664994  0.0556323203256284
  0.5924952626181081  0.5181157464933293  0.0560302217893778
  0.5554904145304889  0.5551912017987277  0.0566135111378685
  0.5925423397645488  0.6292834211581209  0.0564960167132256
  0.5554904776628788  0.6663385376131146  0.0566108761889410
  0.5925568456358050  0.7404169522129251  0.0575721765772386
  0.5555056447919995  0.7774052389330990  0.0593474277196009
  0.5924908275787715  0.8514319073099017  0.0618070650307843
  0.5554403068811311  0.8884324464141073  0.0638736962113811
  0.5924505477187907  0.9625423441518350  0.0654771774248744
  0.6665090345537195  0.9995911822710539  0.0658238622524863
  0.7035632152353699  0.0737406036106663  0.0663553429768911
  0.6665178640588465  0.1108003975826932  0.0656901250478512
  0.7035565455475918  0.1849000856026208  0.0643582511328873
  0.6665019444519444  0.2219240315971120  0.0620121971190528
  0.7034857746376986  0.2959264607523480  0.0593804736427614
  0.6664822638611767  0.3328829995235481  0.0563009189145447
  0.7035601476852946  0.4069842307820437  0.0551478437618229
  0.6665291363589390  0.4439945308647566  0.0545569565597503
  0.7036072969055027  0.5181333178829277  0.0557070820926242
  0.6665975774580204  0.5551796427519093  0.0561638873339305
  0.7035642516608434  0.6292323572827101  0.0576465489878544
  0.6665878439732040  0.6663162349127916  0.0571236327489402
  0.7035940397726606  0.7403852906687476  0.0583478524555545
  0.6665811410689955  0.7774370344656987  0.0583930272104567
  0.7035706298312547  0.8514432910794909  0.0609227477969299
  0.6665479515086545  0.8884773070293477  0.0624159567444380
  0.7035380545468684  0.9625149305942742  0.0648941431291163
  0.7776308137956818  0.9996182542963865  0.0658453660260960
  0.8147142525829167  0.0737431205717201  0.0667440923005316
  0.7776542561275264  0.1108066661334561  0.0665716102129679
  0.8147077451843998  0.1849054696951740  0.0659418088222523
  0.7776226831965189  0.2219116531771164  0.0646024545801041
  0.8146507101658500  0.2960072342318938  0.0630639732554812
  0.7775858491119436  0.3329771586429615  0.0605662184356461
  0.8146225821697897  0.4070564471011977  0.0594424456523726
  0.7776078306646639  0.4440602864480070  0.0569972306546376
  0.8146367872936509  0.5181092852827263  0.0582678521694149
  0.7775928547497415  0.5551394191690449  0.0577500821748274
  0.8145823285979858  0.6291881979735621  0.0603228062472425
  0.7775612929361131  0.6662309943634881  0.0599863916039780
  0.8146007367450281  0.7403291059133252  0.0619312424643184
  0.7775886322210113  0.7773827593561862  0.0609579094208925
  0.8145997959730380  0.8514113560061602  0.0631667691706426
  0.7775832384456436  0.8884730386488471  0.0630460652390994
  0.8146407350201841  0.9625402631365674  0.0653351530575108
  0.8887551542888943  0.9996557761571765  0.0663638556205512
  0.9258565828469685  0.0737733187735472  0.0666346278193188
  0.8888111961580094  0.1108165612940155  0.0667374321005241
  0.9259035719807542  0.1849516456186322  0.0660074887637023
  0.8888277359655348  0.2219622866708875  0.0655995445862771
  0.9258831174979463  0.2960451395405741  0.0641760004543741
  0.8887530248403195  0.3330307617047623  0.0632728122963542
  0.9257833783242404  0.4070737520213257  0.0622403163808158
  0.8886798104098972  0.4440593221985267  0.0611978862915237
  0.9257398173572611  0.5181481587251611  0.0616723650724538
  0.8886332729728394  0.5551218377169604  0.0610641605716893
  0.9257031462999876  0.6292059397736409  0.0630055160086513
  0.8886246188202520  0.6662172917246565  0.0629048706586062
  0.9256639245110065  0.7402749299041886  0.0648066434723304
  0.8886144303712982  0.7773300138926231  0.0644346837199734
  0.9257206793534536  0.8514485563720342  0.0657659229358174
  0.8886729766021304  0.8884697435951594  0.0653650398705352
  0.9257855027550690  0.9626002034419230  0.0662864508177066
  0.2704205268547568  0.1363360482764051  0.1701559592305131
  0.3394929819623727  0.1899599200101605  0.1704938252886095
  0.3520251300475223  0.2579170494985306  0.1708082923505287
  0.2968265276692748  0.2718090683106595  0.1703599317823503
  0.2279557626589082  0.2183201150959420  0.1698109100860989
  0.2154528654279986  0.1502777710607290  0.1699863404608664
  0.3280689082984765  0.3470228108800413  0.1713488497088349
  0.4158104873732000  0.3251837704797609  0.1720874373551453
  0.3195623510046772  0.4459252742570143  0.1704956901489822
  0.3952275849725666  0.5600438540663504  0.1713258288420008
  0.2786528068817660  0.4803870756570277  0.1681523988995650
  0.3261802089754369  0.5522361636074251  0.1686514041111238
  0.3034695974337893  0.6002597036724708  0.1671234571392475
  0.2319824858651245  0.5745879718416873  0.1653478827903143
  0.1845865882086315  0.5029492967589633  0.1651061750250733
  0.2073464782793337  0.4547989607491445  0.1663095438493301
  0.5349112055390535  0.3925460917567847  0.1713820857019499
  0.6106846651833564  0.5066439419999611  0.1709201962705507
  0.6263597984326168  0.3520168496966178  0.1674994105034102
  0.6978072323099482  0.3774080738885175  0.1659646600464839
  0.7453391455602087  0.4490004656926203  0.1656938767090708
  0.7228193117812367  0.4973703413569197  0.1669430276882977
  0.6515580977757338  0.4720630815900719  0.1686409919039491
  0.6038826699759454  0.4002283351016658  0.1689288379939740
  0.6021068217450818  0.6055634388315880  0.1718187630873302
  0.5143341766892107  0.6274411384825598  0.1725791599200619
  0.6333256190187910  0.6807881625899199  0.1709758670630137
  0.7021746464670429  0.7343106660576950  0.1704416591002058
  0.7146629523476591  0.8023438192979597  0.1708040216724740
  0.6596972486546733  0.8162914995607125  0.1712261566208042
  0.5906422905504201  0.7626471838194675  0.1715147553060490
  0.5781182229734512  0.6946852174658176  0.1715309622869228
  0.2699214048005487  0.1363920875195817  0.2902030929304118
  0.3389651189020384  0.1900667143314934  0.2899939510784080
  0.3513154905497089  0.2578636346250534  0.2892552590214947
  0.2962291697153461  0.2718597338431223  0.2888131912888312
  0.2274292187238913  0.2184216788599684  0.2891411294360964
  0.2150011671763110  0.1503520193362604  0.2897864295308423
  0.3276592048603817  0.3471023104202118  0.2871198460443125
  0.4151246348917823  0.3248854828093712  0.2877849052914954
  0.3194691917954842  0.4460771819462437  0.2860232683742439
  0.3956450401400602  0.5599420757417732  0.2868198649394742
  0.2788882151457912  0.4810170492847305  0.2860536121409325
  0.3268367014026197  0.5527298570511903  0.2865935434109588
  0.3047928783831324  0.6012594238935876  0.2858327923725525
  0.2333877025983213  0.5762304520615871  0.2842634767325762
  0.1855930900252076  0.5047245448205757  0.2837486231603421
  0.2077383123424781  0.4560438905073312  0.2847640746050359
  0.5341508028863799  0.3914523375714367  0.2869297248422029
  0.6103573877693620  0.5052966261764809  0.2865345923998461
  0.6248930651090276  0.3499962268986607  0.2863319988425346
  0.6962902574255310  0.3749329739501803  0.2850752383520145
  0.7441318878314860  0.4464235416838207  0.2846992858653792
  0.7220645687508878  0.4951730160109520  0.2856158856888413
  0.6509184139629483  0.4703032437891963  0.2866728324762491
  0.6029254246567888  0.3985940928740845  0.2869997794910688
  0.6021464268787398  0.6042844333891324  0.2876868182718511
  0.5146772780684898  0.6265426456604573  0.2881903405429824
  0.6335632419507391  0.6795294473656526  0.2895129904613896
  0.7023651359888561  0.7329465473831576  0.2900038444598607
  0.7148270764679623  0.8010223607487816  0.2908230842337787
  0.6599286005462730  0.8150115363076011  0.2912416082464375
  0.5908744114208915  0.7613590983424317  0.2908234816654627
  0.5784904825619748  0.6935462662699337  0.2899046947852639
  0.2695172036170419  0.1357921686178543  0.4134670077392499
  0.3385405066175053  0.1893799123645010  0.4121335506490880
  0.3508840733168412  0.2572483460641877  0.4108022401909182
  0.2957246861013516  0.2712991145018862  0.4103200736135477
  0.2268289443142919  0.2177837348133380  0.4112921133910135
  0.2144861733883587  0.1497950829136627  0.4130854639053894
  0.3271104982384756  0.3465443691737988  0.4084161383055545
  0.4147408381300650  0.3242061660879756  0.4092135957965368
  0.3189827959896618  0.4460815380995911  0.4071114206408595
  0.3952609809636769  0.5601132106259854  0.4079516631605316
  0.2783939329602347  0.4810605489613948  0.4072183237409277
  0.3264223115555538  0.5528764904222001  0.4077399890271352
  0.3043757534455409  0.6015059285915996  0.4076257079572088
  0.2329510240752413  0.5764648394011189  0.4073082471146350
  0.1850394592030824  0.5048184232945019  0.4068650339052908
  0.2071245633693053  0.4560806136068720  0.4066698139369933
  0.5343496800898606  0.3912012670665419  0.4084720922304044
  0.6107643055737100  0.5054287978845124  0.4082938966277325
  0.6251887299791932  0.3498797583345379  0.4081783981891505
  0.6965945372039215  0.3749206627778534  0.4079676936743226
  0.7445276225059771  0.4465835115428760  0.4077453743998376
  0.7224755210429592  0.4953321801728379  0.4077438644524776
  0.6512041412913945  0.4703562289135590  0.4083622361355168
  0.6031616685264041  0.3985288062978043  0.4085586647281474
  0.6025507686750800  0.6049197820392607  0.4095293368115875
  0.5148579933262951  0.6271435320499563  0.4097534670645047
  0.6338754020173383  0.6801408445218584  0.4114423897812074
  0.7027672809095762  0.7336246117352161  0.4124321288087813
  0.7151452598094536  0.8016192945138201  0.4141872990251372
  0.6601069400242139  0.8156152766148281  0.4144934873558128
  0.5910700846640466  0.7620461223483801  0.4129985140343706
  0.5786935166365268  0.6941522484452278  0.4116774327714623
  0.4707592323082608  0.4721451181819205  0.4811550713667145
  0.4002070564425182  0.3785018047625499  0.1728550908126110
  0.2902792152881091  0.3775810376036191  0.1701673830891153
  0.3900684584093526  0.4949456884637442  0.1725756880863401
  0.4779279724094465  0.3310498977843750  0.1714795825724309
  0.5401503584724168  0.4576819261718796  0.1727642904608686
  0.6399030665774035  0.5749824377269661  0.1706689611601604
  0.5299840663644986  0.5741277531680282  0.1732304866751733
  0.4521950478343655  0.6215401600216666  0.1718017178058631
  0.3997907859926144  0.3784282714217184  0.2863484416605786
  0.2899227552493500  0.3777527405299921  0.2866248678741030
  0.3901785871175889  0.4947415035082585  0.2859216805502385
  0.4769452234729883  0.3301913501985965  0.2878722473723201
  0.5396563176693405  0.4566849758549907  0.2861402871901788
  0.6398867767943699  0.5736289816481985  0.2872849750285127
  0.5300235030940428  0.5730007447594971  0.2867184950365029
  0.4528448349855339  0.6212077381568122  0.2880666160141132
  0.3988844537562883  0.3770877272700233  0.4079082355709573
  0.2896675220393377  0.3776411357049199  0.4079850555710678
  0.3892010077591550  0.4949565596549803  0.4074038173808319
  0.4768722496640834  0.3299775969906733  0.4095873370721463
  0.5404607419235532  0.4564601575273031  0.4079249408166703
  0.6400213524831173  0.5738256458128248  0.4094233097828806
  0.5308401902350823  0.5743211569471214  0.4086129498261926
  0.4527288531417710  0.6213708870332297  0.4095740377885946
  0.2588014724113137  0.0826235530790385  0.1701541554958794
  0.3822893452176999  0.1794720905922205  0.1708915305596932
  0.1857853353295980  0.2297482970588973  0.1696346458977516
  0.1622408237457620  0.1071828517840387  0.1697767474530707
  0.3404668514903619  0.6556973986045165  0.1675231608913492
  0.2124702648965098  0.6107392887443197  0.1639971865055614
  0.1292225604244805  0.4848722225394795  0.1638031345366855
  0.1711342677211576  0.3991748351442368  0.1661579522431040
  0.5891924298470173  0.2966098380634108  0.1678205709389431
  0.7171301358217406  0.3410990253150885  0.1647523327301812
  0.8006808489972244  0.4669107511475517  0.1644810285390719
  0.7592323232481917  0.5529400158476321  0.1669457473736742
  0.7443436448387004  0.7228723198895537  0.1700308649992195
  0.7678838047611976  0.8454200706612269  0.1705714650674608
  0.6712993634334552  0.8699949050903228  0.1714469255047106
  0.5478048311731953  0.7730651853814834  0.1720702820160227
  0.2583514918602674  0.0826592862788047  0.2902889221061073
  0.3819651599652758  0.1798477100213560  0.2899670993672459
  0.1852619022083601  0.2298734218218073  0.2884628997582936
  0.1617517537965583  0.1072118152466928  0.2895637534359494
  0.3423315772812501  0.6565940786719580  0.2858475745284821
  0.2143325305576198  0.6127835562709052  0.2828994313378814
  0.1302774175759751  0.4870098703199872  0.2819871116747876
  0.1712087094981953  0.4004671878938240  0.2839474183870365
  0.5872968870099200  0.2946754251320414  0.2861913828341045
  0.7152963930496270  0.3383319784384469  0.2838260371632586
  0.7994490257894142  0.4640861175445679  0.2831403135833099
  0.7586840966461423  0.5507324465076593  0.2849172208097883
  0.7445155581406553  0.7214702651499394  0.2893379488737295
  0.7680868071330309  0.8441432671526670  0.2907757747633255
  0.6715202523089800  0.8687493100016823  0.2915047574924046
  0.5478929458426620  0.7716046294031074  0.2907727950354158
  0.2579065847455837  0.0820496888575164  0.4139019387662586
  0.3815168536604716  0.1791342442831265  0.4114677869047654
  0.1846090992219587  0.2291350924558486  0.4100333378703453
  0.1612547977098657  0.1066198045741089  0.4132513545159711
  0.3418899393138162  0.6568428991166968  0.4070448545703442
  0.2138373879344257  0.6129914893619670  0.4064111457672439
  0.1297091871269274  0.4871810283328131  0.4056613304750627
  0.1705181499066626  0.4005389490138143  0.4054060844590879
  0.5876327884924564  0.2945631727125928  0.4073068571244036
  0.7157032511003578  0.3383955328428740  0.4070144775332025
  0.7998536496186688  0.4642099200858425  0.4066000737733546
  0.7590682963769311  0.5508808000348040  0.4065192507528934
  0.7449303458115040  0.7221914522274133  0.4111616864123633
  0.7683886086840417  0.8447681593114282  0.4144000803536514
  0.6717502763295258  0.8693675629035482  0.4149635448576845
  0.5481367973449665  0.7723547919936493  0.4121855502121221
  0.4651337455419196  0.4763927243622916  0.1757452721093244
  0.4649136443775319  0.4757729619504047  0.2838159258809725
  0.4649761945262014  0.4756068130185511  0.4139722857094199
  0.4872480798640098  0.4632715509981011  0.5190322328375174
 
  0.00000000E+00  0.00000000E+00  0.00000000E+00
  0.00000000E+00  0.00000000E+00  0.00000000E+00
  0.00000000E+00  0.00000000E+00  0.00000000E+00
  0.00000000E+00  0.00000000E+00  0.00000000E+00
  0.00000000E+00  0.00000000E+00  0.00000000E+00
  0.00000000E+00  0.00000000E+00  0.00000000E+00
  0.00000000E+00  0.00000000E+00  0.00000000E+00
  0.00000000E+00  0.00000000E+00  0.00000000E+00
  0.00000000E+00  0.00000000E+00  0.00000000E+00
  0.00000000E+00  0.00000000E+00  0.00000000E+00
  0.00000000E+00  0.00000000E+00  0.00000000E+00
  0.00000000E+00  0.00000000E+00  0.00000000E+00
  0.00000000E+00  0.00000000E+00  0.00000000E+00
  0.00000000E+00  0.00000000E+00  0.00000000E+00
  0.00000000E+00  0.00000000E+00  0.00000000E+00
  0.00000000E+00  0.00000000E+00  0.00000000E+00
  0.00000000E+00  0.00000000E+00  0.00000000E+00
  0.00000000E+00  0.00000000E+00  0.00000000E+00
  0.00000000E+00  0.00000000E+00  0.00000000E+00
  0.00000000E+00  0.00000000E+00  0.00000000E+00
  0.00000000E+00  0.00000000E+00  0.00000000E+00
  0.00000000E+00  0.00000000E+00  0.00000000E+00
  0.00000000E+00  0.00000000E+00  0.00000000E+00
  0.00000000E+00  0.00000000E+00  0.00000000E+00
  0.00000000E+00  0.00000000E+00  0.00000000E+00
  0.00000000E+00  0.00000000E+00  0.00000000E+00
  0.00000000E+00  0.00000000E+00  0.00000000E+00
  0.00000000E+00  0.00000000E+00  0.00000000E+00
  0.00000000E+00  0.00000000E+00  0.00000000E+00
  0.00000000E+00  0.00000000E+00  0.00000000E+00
  0.00000000E+00  0.00000000E+00  0.00000000E+00
  0.00000000E+00  0.00000000E+00  0.00000000E+00
  0.00000000E+00  0.00000000E+00  0.00000000E+00
  0.00000000E+00  0.00000000E+00  0.00000000E+00
  0.00000000E+00  0.00000000E+00  0.00000000E+00
  0.00000000E+00  0.00000000E+00  0.00000000E+00
  0.00000000E+00  0.00000000E+00  0.00000000E+00
  0.00000000E+00  0.00000000E+00  0.00000000E+00
  0.00000000E+00  0.00000000E+00  0.00000000E+00
  0.00000000E+00  0.00000000E+00  0.00000000E+00
  0.00000000E+00  0.00000000E+00  0.00000000E+00
  0.00000000E+00  0.00000000E+00  0.00000000E+00
  0.00000000E+00  0.00000000E+00  0.00000000E+00
  0.00000000E+00  0.00000000E+00  0.00000000E+00
  0.00000000E+00  0.00000000E+00  0.00000000E+00
  0.00000000E+00  0.00000000E+00  0.00000000E+00
  0.00000000E+00  0.00000000E+00  0.00000000E+00
  0.00000000E+00  0.00000000E+00  0.00000000E+00
  0.00000000E+00  0.00000000E+00  0.00000000E+00
  0.00000000E+00  0.00000000E+00  0.00000000E+00
  0.00000000E+00  0.00000000E+00  0.00000000E+00
  0.00000000E+00  0.00000000E+00  0.00000000E+00
  0.00000000E+00  0.00000000E+00  0.00000000E+00
  0.00000000E+00  0.00000000E+00  0.00000000E+00
  0.00000000E+00  0.00000000E+00  0.00000000E+00
  0.00000000E+00  0.00000000E+00  0.00000000E+00
  0.00000000E+00  0.00000000E+00  0.00000000E+00
  0.00000000E+00  0.00000000E+00  0.00000000E+00
  0.00000000E+00  0.00000000E+00  0.00000000E+00
  0.00000000E+00  0.00000000E+00  0.00000000E+00
  0.00000000E+00  0.00000000E+00  0.00000000E+00
  0.00000000E+00  0.00000000E+00  0.00000000E+00
  0.00000000E+00  0.00000000E+00  0.00000000E+00
  0.00000000E+00  0.00000000E+00  0.00000000E+00
  0.00000000E+00  0.00000000E+00  0.00000000E+00
  0.00000000E+00  0.00000000E+00  0.00000000E+00
  0.00000000E+00  0.00000000E+00  0.00000000E+00
  0.00000000E+00  0.00000000E+00  0.00000000E+00
  0.00000000E+00  0.00000000E+00  0.00000000E+00
  0.00000000E+00  0.00000000E+00  0.00000000E+00
  0.00000000E+00  0.00000000E+00  0.00000000E+00
  0.00000000E+00  0.00000000E+00  0.00000000E+00
  0.00000000E+00  0.00000000E+00  0.00000000E+00
  0.00000000E+00  0.00000000E+00  0.00000000E+00
  0.00000000E+00  0.00000000E+00  0.00000000E+00
  0.00000000E+00  0.00000000E+00  0.00000000E+00
  0.00000000E+00  0.00000000E+00  0.00000000E+00
  0.00000000E+00  0.00000000E+00  0.00000000E+00
  0.00000000E+00  0.00000000E+00  0.00000000E+00
  0.00000000E+00  0.00000000E+00  0.00000000E+00
  0.00000000E+00  0.00000000E+00  0.00000000E+00
  0.00000000E+00  0.00000000E+00  0.00000000E+00
  0.00000000E+00  0.00000000E+00  0.00000000E+00
  0.00000000E+00  0.00000000E+00  0.00000000E+00
  0.00000000E+00  0.00000000E+00  0.00000000E+00
  0.00000000E+00  0.00000000E+00  0.00000000E+00
  0.00000000E+00  0.00000000E+00  0.00000000E+00
  0.00000000E+00  0.00000000E+00  0.00000000E+00
  0.00000000E+00  0.00000000E+00  0.00000000E+00
  0.00000000E+00  0.00000000E+00  0.00000000E+00
  0.00000000E+00  0.00000000E+00  0.00000000E+00
  0.00000000E+00  0.00000000E+00  0.00000000E+00
  0.00000000E+00  0.00000000E+00  0.00000000E+00
  0.00000000E+00  0.00000000E+00  0.00000000E+00
  0.00000000E+00  0.00000000E+00  0.00000000E+00
  0.00000000E+00  0.00000000E+00  0.00000000E+00
  0.00000000E+00  0.00000000E+00  0.00000000E+00
  0.00000000E+00  0.00000000E+00  0.00000000E+00
  0.00000000E+00  0.00000000E+00  0.00000000E+00
  0.00000000E+00  0.00000000E+00  0.00000000E+00
  0.00000000E+00  0.00000000E+00  0.00000000E+00
  0.00000000E+00  0.00000000E+00  0.00000000E+00
  0.00000000E+00  0.00000000E+00  0.00000000E+00
  0.00000000E+00  0.00000000E+00  0.00000000E+00
  0.00000000E+00  0.00000000E+00  0.00000000E+00
  0.00000000E+00  0.00000000E+00  0.00000000E+00
  0.00000000E+00  0.00000000E+00  0.00000000E+00
  0.00000000E+00  0.00000000E+00  0.00000000E+00
  0.00000000E+00  0.00000000E+00  0.00000000E+00
  0.00000000E+00  0.00000000E+00  0.00000000E+00
  0.00000000E+00  0.00000000E+00  0.00000000E+00
  0.00000000E+00  0.00000000E+00  0.00000000E+00
  0.00000000E+00  0.00000000E+00  0.00000000E+00
  0.00000000E+00  0.00000000E+00  0.00000000E+00
  0.00000000E+00  0.00000000E+00  0.00000000E+00
  0.00000000E+00  0.00000000E+00  0.00000000E+00
  0.00000000E+00  0.00000000E+00  0.00000000E+00
  0.00000000E+00  0.00000000E+00  0.00000000E+00
  0.00000000E+00  0.00000000E+00  0.00000000E+00
  0.00000000E+00  0.00000000E+00  0.00000000E+00
  0.00000000E+00  0.00000000E+00  0.00000000E+00
  0.00000000E+00  0.00000000E+00  0.00000000E+00
  0.00000000E+00  0.00000000E+00  0.00000000E+00
  0.00000000E+00  0.00000000E+00  0.00000000E+00
  0.00000000E+00  0.00000000E+00  0.00000000E+00
  0.00000000E+00  0.00000000E+00  0.00000000E+00
  0.00000000E+00  0.00000000E+00  0.00000000E+00
  0.00000000E+00  0.00000000E+00  0.00000000E+00
  0.00000000E+00  0.00000000E+00  0.00000000E+00
  0.00000000E+00  0.00000000E+00  0.00000000E+00
  0.00000000E+00  0.00000000E+00  0.00000000E+00
  0.00000000E+00  0.00000000E+00  0.00000000E+00
  0.00000000E+00  0.00000000E+00  0.00000000E+00
  0.00000000E+00  0.00000000E+00  0.00000000E+00
  0.00000000E+00  0.00000000E+00  0.00000000E+00
  0.00000000E+00  0.00000000E+00  0.00000000E+00
  0.00000000E+00  0.00000000E+00  0.00000000E+00
  0.00000000E+00  0.00000000E+00  0.00000000E+00
  0.00000000E+00  0.00000000E+00  0.00000000E+00
  0.00000000E+00  0.00000000E+00  0.00000000E+00
  0.00000000E+00  0.00000000E+00  0.00000000E+00
  0.00000000E+00  0.00000000E+00  0.00000000E+00
  0.00000000E+00  0.00000000E+00  0.00000000E+00
  0.00000000E+00  0.00000000E+00  0.00000000E+00
  0.00000000E+00  0.00000000E+00  0.00000000E+00
  0.00000000E+00  0.00000000E+00  0.00000000E+00
  0.00000000E+00  0.00000000E+00  0.00000000E+00
  0.00000000E+00  0.00000000E+00  0.00000000E+00
  0.00000000E+00  0.00000000E+00  0.00000000E+00
  0.00000000E+00  0.00000000E+00  0.00000000E+00
  0.00000000E+00  0.00000000E+00  0.00000000E+00
  0.00000000E+00  0.00000000E+00  0.00000000E+00
  0.00000000E+00  0.00000000E+00  0.00000000E+00
  0.00000000E+00  0.00000000E+00  0.00000000E+00
  0.00000000E+00  0.00000000E+00  0.00000000E+00
  0.00000000E+00  0.00000000E+00  0.00000000E+00
  0.00000000E+00  0.00000000E+00  0.00000000E+00
  0.00000000E+00  0.00000000E+00  0.00000000E+00
  0.00000000E+00  0.00000000E+00  0.00000000E+00
  0.00000000E+00  0.00000000E+00  0.00000000E+00
  0.00000000E+00  0.00000000E+00  0.00000000E+00
  0.00000000E+00  0.00000000E+00  0.00000000E+00
  0.00000000E+00  0.00000000E+00  0.00000000E+00
  0.00000000E+00  0.00000000E+00  0.00000000E+00
  0.00000000E+00  0.00000000E+00  0.00000000E+00
  0.00000000E+00  0.00000000E+00  0.00000000E+00
  0.00000000E+00  0.00000000E+00  0.00000000E+00
  0.00000000E+00  0.00000000E+00  0.00000000E+00
  0.00000000E+00  0.00000000E+00  0.00000000E+00
  0.00000000E+00  0.00000000E+00  0.00000000E+00
  0.00000000E+00  0.00000000E+00  0.00000000E+00
  0.00000000E+00  0.00000000E+00  0.00000000E+00
  0.00000000E+00  0.00000000E+00  0.00000000E+00
  0.00000000E+00  0.00000000E+00  0.00000000E+00
  0.00000000E+00  0.00000000E+00  0.00000000E+00
  0.00000000E+00  0.00000000E+00  0.00000000E+00
  0.00000000E+00  0.00000000E+00  0.00000000E+00
  0.00000000E+00  0.00000000E+00  0.00000000E+00
  0.00000000E+00  0.00000000E+00  0.00000000E+00
  0.00000000E+00  0.00000000E+00  0.00000000E+00
  0.00000000E+00  0.00000000E+00  0.00000000E+00
  0.00000000E+00  0.00000000E+00  0.00000000E+00
  0.00000000E+00  0.00000000E+00  0.00000000E+00
  0.00000000E+00  0.00000000E+00  0.00000000E+00
  0.00000000E+00  0.00000000E+00  0.00000000E+00
  0.00000000E+00  0.00000000E+00  0.00000000E+00
  0.00000000E+00  0.00000000E+00  0.00000000E+00
  0.00000000E+00  0.00000000E+00  0.00000000E+00