 C  N  H Co  O                          
   1.00000000000000     
    11.1395953049292658  -19.2959895207139844    0.0000000000000000
    11.1364979328500873   19.2942010821614964    0.0000000000000000
     0.0000000000000000    0.0000000000000000   27.7423831521563571
   C    N    H    Co   O 
   259    24    49     3     2
Selective dynamics
Direct
  0.9999004225109758  0.9997139078207766  0.0663613508772869   F   F   F
  0.0370185818717985  0.0738489870381613  0.0653782123742488   F   F   F
  0.9999711204708390  0.1108816696805022  0.0658532493988631   F   F   F
  0.0370606992819091  0.1849857195588669  0.0644862855755051   F   F   F
  0.9999971122031752  0.2220348301805544  0.0647720954430042   F   F   F
  0.0370235111001520  0.2960863129667999  0.0628068216865429   F   F   F
  0.9999454106473209  0.3330829131161437  0.0628731052901372   F   F   F
  0.0370217381506848  0.4071780989952316  0.0610180201347106   F   F   F
  0.9999070024744299  0.4441433174469154  0.0617382408699356   F   F   F
  0.0369649131124703  0.5182231236109587  0.0614976444288260   F   F   F
  0.9998609701884718  0.5552193107058869  0.0626170963973394   F   F   F
  0.0368947798739896  0.6292655630213702  0.0637695830448237   F   F   F
  0.9997717769602872  0.6662487811141986  0.0646509876768917   F   F   F
  0.0368428752692296  0.7403473871609876  0.0660146850838146   F   F   F
  0.9997771112813183  0.7773651732066895  0.0663376301165144   F   F   F
  0.0368770263175406  0.8515016948520042  0.0668962474789367   F   F   F
  0.9998365771334363  0.8885524389062383  0.0667584339498859   F   F   F
  0.0369401643644167  0.9626726539633736  0.0663200137684186   F   F   F
  0.1110494925382497  0.9997776644778682  0.0650184890124734   F   F   F
  0.1480958560673713  0.0738258268779006  0.0626083591711293   F   F   F
  0.1110783161244058  0.1108908401286968  0.0630453488398857   F   F   F
  0.1480845438163385  0.1849280739657075  0.0610430828410387   F   F   F
  0.1110863902575403  0.2219876823345288  0.0620690379120461   F   F   F
  0.1481051628432368  0.2960858744209247  0.0601117605637711   F   F   F
  0.1110819643287755  0.3331404667204652  0.0602583959400675   F   F   F
  0.1480551986241778  0.4071601366248885  0.0576608706333843   F   F   F
  0.1110178442726450  0.4442009145011170  0.0582804668521320   F   F   F
  0.1480510323199056  0.5182651865161887  0.0572720709099883   F   F   F
  0.1110396844391985  0.5552421746404193  0.0598847574775476   F   F   F
  0.1480695639659189  0.6293336994020109  0.0612036789541932   F   F   F
  0.1110060277985454  0.6662912127484475  0.0636389017275505   F   F   F
  0.1480356102151106  0.7403783012523562  0.0651276976798556   F   F   F
  0.1109560447845794  0.7773981374888876  0.0663235999339022   F   F   F
  0.1480068464876325  0.8514993496411520  0.0667239819680887   F   F   F
  0.1109689199484194  0.8885730185723304  0.0667579124432507   F   F   F
  0.1480571664622801  0.9626966707330240  0.0655231247552166   F   F   F
  0.2221376807193849  0.9997868465630404  0.0642599860953581   F   F   F
  0.2591210949954288  0.0737964888532332  0.0614634679001256   F   F   F
  0.2220972481888381  0.1108308986427318  0.0602189192578635   F   F   F
  0.2590893131989986  0.1848599775043596  0.0580570709935060   F   F   F
  0.2220932662393267  0.2219403022372433  0.0584603327276909   F   F   F
  0.2590838500489454  0.2959944897820321  0.0575232032689428   F   F   F
  0.2221036767337026  0.3330902162447344  0.0579551524989839   F   F   F
  0.2590719446691949  0.4071426709524033  0.0564063305342231   F   F   F
  0.2220673190360714  0.4441825219090774  0.0557745854735003   F   F   F
  0.2591485656167052  0.5183233134219449  0.0548035802627709   F   F   F
  0.2221203194211228  0.5553379743231588  0.0555807065256673   F   F   F
  0.2591899619270421  0.6294239154512979  0.0570998182455966   F   F   F
  0.2221705388455817  0.6663702327257965  0.0602053744631874   F   F   F
  0.2591604097619680  0.7403813490339459  0.0628023134035729   F   F   F
  0.2220981056329876  0.7773979453235143  0.0649315641319177   F   F   F
  0.2591473010016756  0.8515149697532465  0.0660117553742623   F   F   F
  0.2221000311946000  0.8885703766805122  0.0663879362920667   F   F   F
  0.2591589285105798  0.9627047826429731  0.0654263127869044   F   F   F
  0.3332101277448416  0.9997447812801923  0.0649970117537677   F   F   F
  0.3702160326772272  0.0738475893710842  0.0630400476726010   F   F   F
  0.3331826293361999  0.1108392880567237  0.0607558569601352   F   F   F
  0.3701605257663232  0.1848611542381704  0.0584957800893093   F   F   F
  0.3330909909458484  0.2218658736737495  0.0572049093861651   F   F   F
  0.3701670296372441  0.2959582550322466  0.0566892914690627   F   F   F
  0.3331442587101279  0.3330329246059307  0.0569327095764436   F   F   F
  0.3702067766191348  0.4071362869717632  0.0570375446486082   F   F   F
  0.3331834298222773  0.4442035554795325  0.0564074381191375   F   F   F
  0.3702815605575864  0.5183109756866031  0.0559478328641134   F   F   F
  0.3331921748322273  0.5553384023849048  0.0551496746370859   F   F   F
  0.3703003268625196  0.6293961723613535  0.0562689407613775   F   F   F
  0.3332203961047924  0.6663912984387892  0.0576161980123828   F   F   F
  0.3702571836012254  0.7403808007874346  0.0607351377726175   F   F   F
  0.3332425167963393  0.7774155164436962  0.0629883999297860   F   F   F
  0.3702737294220881  0.8514879942691564  0.0649887833412066   F   F   F
  0.3332296472914464  0.8885615667845599  0.0659038226252093   F   F   F
  0.3702456534295990  0.9626697883367825  0.0658664735132533   F   F   F
  0.4443255788785905  0.9997124531710213  0.0657765333538691   F   F   F
  0.4813393759167752  0.0738304974204027  0.0646450580196714   F   F   F
  0.4443062439767260  0.1108904625927565  0.0629019279876886   F   F   F
  0.4813042028781567  0.1849251617735845  0.0604354918681764   F   F   F
  0.4442406766717042  0.2219088650866254  0.0583701674581860   F   F   F
  0.4813301406317905  0.2959562796944226  0.0565817040335546   F   F   F
  0.4442430425143442  0.3329752223332818  0.0564118507130331   F   F   F
  0.4813523753744633  0.4070409151172285  0.0565779104847621   F   F   F
  0.4443048473485405  0.4441219548548361  0.0573417752592462   F   F   F
  0.4813793047762758  0.5182124931410996  0.0572138922076419   F   F   F
  0.4443274741767524  0.5552771035834354  0.0566176708009607   F   F   F
  0.4814471963930345  0.6293603414119389  0.0566097866638486   F   F   F
  0.4443450777143312  0.6663561116342791  0.0572367689788393   F   F   F
  0.4814170438704721  0.7403899963169280  0.0593123500617239   F   F   F
  0.4443518493319729  0.7773851578841544  0.0614329511685909   F   F   F
  0.4813531382817970  0.8514267546948844  0.0638008301504698   F   F   F
  0.4443283493177859  0.8884976551929142  0.0652080457664042   F   F   F
  0.4813521697096022  0.9626354613638455  0.0659837052624752   F   F   F
  0.5554208773061475  0.9996631060729797  0.0660868608531402   F   F   F
  0.5924306714845926  0.0737717288758120  0.0657426168610087   F   F   F
  0.5553947508910326  0.1108427257228897  0.0644793702761106   F   F   F
  0.5924242198768752  0.1849139070429970  0.0622533056082801   F   F   F
  0.5554161785711074  0.2219470586672401  0.0598094370122055   F   F   F
  0.5924528966470319  0.2959262152442506  0.0567615559274088   F   F   F
  0.5553637163025869  0.3329294020023283  0.0556320277028988   F   F   F
  0.5924674306287088  0.4069913530484186  0.0548138520878325   F   F   F
  0.5554001989040600  0.4440250572437776  0.0557520388243091   F   F   F
  0.5924998188111985  0.5181370952102924  0.0561707757384440   F   F   F
  0.5554881458579430  0.5552091789529499  0.0567543359055591   F   F   F
  0.5925407536160350  0.6292976360547655  0.0566490481008444   F   F   F
  0.5554899351527069  0.6663556303845724  0.0567404948060286   F   F   F
  0.5925573609038040  0.7404346256582741  0.0577044120075954   F   F   F
  0.5555054875150702  0.7774250006466445  0.0594770728153904   F   F   F
  0.5924883709549746  0.8514477822023423  0.0619540643858940   F   F   F
  0.5554416460617375  0.8884524179963549  0.0640323352555043   F   F   F
  0.5924533356795081  0.9625613239293571  0.0656258504610321   F   F   F
  0.6665114426113803  0.9996117797261803  0.0659637263080555   F   F   F
  0.7035639074933329  0.0737586393106184  0.0664918580317746   F   F   F
  0.6665216088569395  0.1108237835365813  0.0658371277249117   F   F   F
  0.7035587935030421  0.1849216076290787  0.0645124799117056   F   F   F
  0.6665030836213646  0.2219438156007243  0.0621594221791284   F   F   F
  0.7034893098452386  0.2959461234720280  0.0595064533510126   F   F   F
  0.6664879718141847  0.3329009320584646  0.0563779840714176   F   F   F
  0.7035669555571502  0.4070007205708137  0.0552124135081655   F   F   F
  0.6665362826475416  0.4440151677362181  0.0546286015303252   F   F   F
  0.7036173300709052  0.5181516498569536  0.0558165694169830   F   F   F
  0.6665986734997063  0.5551922521877586  0.0563086668469737   F   F   F
  0.7035645738268812  0.6292425829405204  0.0578296244434071   F   F   F
  0.6665874347325271  0.6663224821947935  0.0572965279666988   F   F   F
  0.7035916680617262  0.7403934895321953  0.0585307446710814   F   F   F
  0.6665813724128995  0.7774498435959600  0.0585448190125248   F   F   F
  0.7035714703288392  0.8514564332686874  0.0610817919496256   F   F   F
  0.6665474238246460  0.8884919092297707  0.0625625671011178   F   F   F
  0.7035379787815543  0.9625312395346626  0.0650387984005647   F   F   F
  0.7776300789746173  0.9996356346030595  0.0659989659528009   F   F   F
  0.8147133057960971  0.0737601137273245  0.0668844244068580   F   F   F
  0.7776524786417696  0.1108247611570476  0.0667042213049953   F   F   F
  0.8147070817685105  0.1849252308451383  0.0660769664117780   F   F   F
  0.7776254892331877  0.2219354285432829  0.0647531912644439   F   F   F
  0.8146560485696597  0.2960326885129660  0.0632287615244778   F   F   F
  0.7775902035768780  0.3330018483284363  0.0607148785448288   F   F   F
  0.8146282450641777  0.4070816614338924  0.0595854609089059   F   F   F
  0.7776148696520337  0.4440856726883098  0.0571010748629917   F   F   F
  0.8146453541371912  0.5181345255972190  0.0584011145300209   F   F   F
  0.7776018519587993  0.5551660202987563  0.0578866296190128   F   F   F
  0.8145880769426981  0.6292104943776806  0.0605023017999216   F   F   F
  0.7775623492253629  0.6662498857421042  0.0601950800641760   F   F   F
  0.8145951821236039  0.7403428076405092  0.0621774468890521   F   F   F
  0.7775849022879413  0.7773958472620279  0.0611931409498396   F   F   F
  0.8146014349188206  0.8514272240558824  0.0633876190424161   F   F   F
  0.7775851565367162  0.8884899006346387  0.0632357738405531   F   F   F
  0.8146413562148567  0.9625567175545271  0.0655144803958194   F   F   F
  0.8887532676382790  0.9996764831265850  0.0665465369456086   F   F   F
  0.9258560035822896  0.0737926174323746  0.0668011904210317   F   F   F
  0.8888100154584109  0.1108347745512717  0.0668875228847625   F   F   F
  0.9259011571611708  0.1849675668603794  0.0661494201081538   F   F   F
  0.8888260389262967  0.2219820678436548  0.0657367400509017   F   F   F
  0.9258843067847238  0.2960653581283026  0.0643267879810807   F   F   F
  0.8887585500780943  0.3330547416434868  0.0634371703763321   F   F   F
  0.9257858541370467  0.4070992901612129  0.0624037501578627   F   F   F
  0.8886858745973569  0.4440871170062692  0.0613650799028918   F   F   F
  0.9257476363795050  0.5181769350918444  0.0618419189915116   F   F   F
  0.8886417654304779  0.5551507478848450  0.0612296093946014   F   F   F
  0.9257089344485934  0.6292324121870223  0.0631795605052687   F   F   F
  0.8886264689063594  0.6662391706369206  0.0630841658180046   F   F   F
  0.9256662684831412  0.7402965198956508  0.0649977451883430   F   F   F
  0.8886114996029448  0.7773461025751232  0.0646560025435150   F   F   F
  0.9257257293216128  0.8514694478513789  0.0659571660287384   F   F   F
  0.8886773104187000  0.8884929557080028  0.0655723559748012   F   F   F
  0.9257877451582956  0.9626242603945627  0.0664737113839706   F   F   F
  0.2703478094147727  0.1363622028375815  0.1593930286489709   F   F   F
  0.3394302541588416  0.1899514530275113  0.1597515042336752   F   F   F
  0.3519765556287098  0.2579038718931557  0.1601304953187324   F   F   F
  0.2968014568003454  0.2718213495030213  0.1596887475848447   F   F   F
  0.2279209105302868  0.2183800131150662  0.1590819126975518   F   F   F
  0.2153985998544101  0.1503340466784309  0.1592294050155303   F   F   F
  0.3280569388159549  0.3470176035850514  0.1608407893607975   F   F   F
  0.4157623426276587  0.3251388213426623  0.1615700452404383   F   F   F
  0.3195713889711200  0.4459122341947932  0.1599839634161881   F   F   F
  0.3952504412669526  0.5600005041311604  0.1608052119789605   F   F   F
  0.2786914329565349  0.4803837491699525  0.1574694663456668   F   F   F
  0.3262336145168661  0.5522184089426148  0.1579628199240162   F   F   F
  0.3035719893498197  0.6002689735646598  0.1563601861483903   F   F   F
  0.2320928338479220  0.5746164109077085  0.1545483245961421   F   F   F
  0.1846742556530288  0.5029821805370958  0.1543229473377892   F   F   F
  0.2073942990371194  0.4548030021250256  0.1555605172525176   F   F   F
  0.5348517451660157  0.3924689700856163  0.1608765188709569   F   F   F
  0.6106282356262440  0.5065467774378192  0.1604438144798266   F   F   F
  0.6262506358636841  0.3519151034732033  0.1567537413590969   F   F   F
  0.6977032215396406  0.3773262249925011  0.1551871535420162   F   F   F
  0.7452409504733737  0.4489173426264728  0.1549296241440743   F   F   F
  0.7227305953089811  0.4972918604263867  0.1562203207583295   F   F   F
  0.6514773217633305  0.4719640870967581  0.1579843816578901   F   F   F
  0.6037974771477579  0.4001345756550521  0.1582604812725421   F   F   F
  0.6020776809702966  0.6054642680404143  0.1613038158765647   F   F   F
  0.5143389929480904  0.6273621085670840  0.1620476973448817   F   F   F
  0.6333042592006137  0.6806777452687243  0.1602773992464179   F   F   F
  0.7021586814508041  0.7341679809271540  0.1597062810438530   F   F   F
  0.7146489888486514  0.8021996681757457  0.1600556846229750   F   F   F
  0.6596899461958685  0.8161621702675745  0.1604709095682608   F   F   F
  0.5906289319662648  0.7625398694115546  0.1607683582798884   F   F   F
  0.5781147551092474  0.6945883364606473  0.1608313521609190   F   F   F
  0.2699404908713277  0.1364332761188294  0.2683853987417280   F   F   F
  0.3389891723771825  0.1900939109026183  0.2683068415182177   F   F   F
  0.3513551023965391  0.2578900848724217  0.2674780017406135   F   F   F
  0.2962847294740811  0.2718985629115238  0.2670811289519506   F   F   F
  0.2274816532447872  0.2184835599634098  0.2675027338887119   F   F   F
  0.2150352045990331  0.1504092564691959  0.2679855294815141   F   F   F
  0.3277292112908725  0.3471273153204564  0.2650932552059899   F   F   F
  0.4151524604054941  0.3248971600855697  0.2656671327822977   F   F   F
  0.3195316679255313  0.4460891869103421  0.2642230253214350   F   F   F
  0.3956803984589783  0.5599402472169643  0.2649884509762117   F   F   F
  0.2789361410002016  0.4810122819655334  0.2645686851674043   F   F   F
  0.3268716919834773  0.5527221028671931  0.2650792565658975   F   F   F
  0.3048317227078599  0.6012493255093005  0.2642063086826028   F   F   F
  0.2334356755283835  0.5762007160289428  0.2623812293874650   F   F   F
  0.1856506896976740  0.5046967178699475  0.2618871093591792   F   F   F
  0.2077892864765047  0.4560214283772481  0.2631823195167300   F   F   F
  0.5341478396683925  0.3914613978445871  0.2650416642582130   F   F   F
  0.6103382128072354  0.5052991329952334  0.2647266347045871   F   F   F
  0.6248786319778930  0.3500185102413624  0.2647094273731767   F   F   F
  0.6962665969876838  0.3749644917894628  0.2632013521600882   F   F   F
  0.7440995591642974  0.4464553825673576  0.2628392467539271   F   F   F
  0.7220434249460155  0.4952063939013129  0.2640299392230858   F   F   F
  0.6509027382062769  0.4703179425220299  0.2651694160976206   F   F   F
  0.6029202910677895  0.3986165510509849  0.2654640752538668   F   F   F
  0.6021304277493726  0.6042708878811567  0.2657396001989270   F   F   F
  0.5146836063468285  0.6265214007035169  0.2662087239903954   F   F   F
  0.6335433432216746  0.6794964090709072  0.2678361122700039   F   F   F
  0.7023415019049466  0.7329013530105328  0.2683861740286630   F   F   F
  0.7147952072524859  0.8009755552528048  0.2690368331627866   F   F   F
  0.6598983602229964  0.8149598524006265  0.2694310202821626   F   F   F
  0.5908445630337837  0.7613083491462405  0.2691604782156674   F   F   F
  0.5784763100277388  0.6935089112410893  0.2682068185754289   F   F   F
  0.2697670822060232  0.1361051076518649  0.3807789063987812   F   F   F
  0.3387704590732881  0.1896628119091872  0.3789101145156621   F   F   F
  0.3510782546593205  0.2574975314627039  0.3767896557947950   F   F   F
  0.2959418811812640  0.2714780261615957  0.3765760745254028   F   F   F
  0.2270467686686430  0.2180474113792883  0.3783299873335935   F   F   F
  0.2146996956116070  0.1500854010234463  0.3804431881734018   F   F   F
  0.3272495955761840  0.3465758744715473  0.3738427297183620   F   F   F
  0.4147743618559474  0.3243973983079798  0.3740929748521538   F   F   F
  0.3190684927099596  0.4457129486735809  0.3745545167899635   F   F   F
  0.3956477751648180  0.5597512818341315  0.3756162266746301   F   F   F
  0.2787751376226026  0.4808451708309107  0.3754298977002790   F   F   F
  0.3269155977460798  0.5525761612197471  0.3760163542197432   F   F   F
  0.3050465046257713  0.6013457689584101  0.3751866901479843   F   F   F
  0.2336760749660911  0.5764413836026989  0.3744426596136066   F   F   F
  0.1856047251878579  0.5047989691070072  0.3740394647936824   F   F   F
  0.2075217869700268  0.4559578228351526  0.3742349715761009   F   F   F
  0.5340012720168019  0.3911432241575596  0.3753551528849641   F   F   F
  0.6104050368508354  0.5052646987160330  0.3755480341245416   F   F   F
  0.6248472788311190  0.3498103522408726  0.3755875780319116   F   F   F
  0.6962630925477242  0.3749119227655129  0.3752631707754546   F   F   F
  0.7441706509639303  0.4466019144508948  0.3750036846804221   F   F   F
  0.7220556596538685  0.4952832271289935  0.3751679185507726   F   F   F
  0.6507618230681587  0.4701942645450785  0.3761872942155833   F   F   F
  0.6027574078904863  0.3984264478280508  0.3762784293378090   F   F   F
  0.6024653667472677  0.6045593065465269  0.3753665260085199   F   F   F
  0.5149516483282071  0.6265988756217737  0.3757942952169842   F   F   F
  0.6338219160221712  0.6797327854586754  0.3781668512060534   F   F   F
  0.7026843872406943  0.7332465596198574  0.3795581863730675   F   F   F
  0.7149641263742836  0.8012118166012243  0.3815275295963687   F   F   F
  0.6598576753427068  0.8150942482664050  0.3818521630561307   F   F   F
  0.5908559932500097  0.7614413999684189  0.3802176526870795   F   F   F
  0.5786302013738833  0.6936251395576605  0.3785010236159465   F   F   F
  0.4643326822449663  0.4765403053265699  0.4437588404394760   T   T   T
  0.4001709277913079  0.3784559682991713  0.1624603467870429   F   F   F
  0.2902724831206598  0.3775765510051485  0.1596354863015037   F   F   F
  0.3900607079020446  0.4949052228453468  0.1621957854341503   F   F   F
  0.4778636077146672  0.3309801314790093  0.1609283980442626   F   F   F
  0.5401106600486969  0.4575949652250912  0.1624070998153897   F   F   F
  0.6398692192369140  0.5748816889565305  0.1601553812444294   F   F   F
  0.5299734621070584  0.5740492262618488  0.1628382126302625   F   F   F
  0.4522168746196726  0.6214899287310161  0.1612393977180275   F   F   F
  0.3998408720944084  0.3784424493742620  0.2639641167664308   F   F   F
  0.2899929074560390  0.3777783860447315  0.2648453133568012   F   F   F
  0.3902469433568498  0.4947561624353298  0.2638418346689377   F   F   F
  0.4769675918296485  0.3302097704441067  0.2659299147013456   F   F   F
  0.5396391614954652  0.4566943136612664  0.2640410264039517   F   F   F
  0.6398634535723815  0.5736155351363692  0.2655117210662681   F   F   F
  0.5300256454973962  0.5729886116127076  0.2644679978145135   F   F   F
  0.4528620974480972  0.6211969237592285  0.2662437716682433   F   F   F
  0.3990682773456200  0.3774789591397010  0.3715883601708114   F   F   F
  0.2896318320704339  0.3773909146518761  0.3749186656201573   F   F   F
  0.3896082792830811  0.4944308724335755  0.3739304288213532   F   F   F
  0.4766771621018151  0.3299632425997032  0.3754742133531010   F   F   F
  0.5398631143538424  0.4564431334420860  0.3744901049709952   F   F   F
  0.6399617233661132  0.5736060116210027  0.3763083669830323   F   F   F
  0.5307450528672177  0.5737078689481976  0.3729380964202775   F   F   F
  0.4529722223113311  0.6208974639087472  0.3768490199463699   F   F   F
  0.2587010348561378  0.0826455143864564  0.1594203040465061   F   F   F
  0.3822306660078354  0.1794722934419966  0.1601919210208180   F   F   F
  0.1857959330496044  0.2298748624450653  0.1589472685169326   F   F   F
  0.1621806845487299  0.1072614859219456  0.1590611275885720   F   F   F
  0.3406055089790598  0.6556951359242262  0.1567902757718400   F   F   F
  0.2125997582419146  0.6107818776695879  0.1532260249235762   F   F   F
  0.1293145959435549  0.4849293812438873  0.1530730829876816   F   F   F
  0.1711808788176725  0.3991774086819504  0.1554570771143773   F   F   F
  0.5890698684702400  0.2965147312441587  0.1571033736959961   F   F   F
  0.7170302501948811  0.3410222773332237  0.1540106909696348   F   F   F
  0.8005829051083495  0.4668316549526992  0.1537609459600091   F   F   F
  0.7591180112052811  0.5528695111648148  0.1562701762705956   F   F   F
  0.7442990739100921  0.7226890110724682  0.1593471062283029   F   F   F
  0.7678682466523838  0.8452689875571693  0.1598944777911413   F   F   F
  0.6713010780591873  0.8698664508367102  0.1607408601135347   F   F   F
  0.5477755609322656  0.7729320003126645  0.1613847375150215   F   F   F
  0.2583625066230226  0.0827019033557619  0.2681899781297190   F   F   F
  0.3819794690727178  0.1798629310005353  0.2683058952508119   F   F   F
  0.1853257654219576  0.2299497653181604  0.2668578257070138   F   F   F
  0.1617853413030375  0.1072794194500943  0.2674700975247006   F   F   F
  0.3423711016727466  0.6565827347434166  0.2641392453396492   F   F   F
  0.2143995091786266  0.6127459675658358  0.2606496027462981   F   F   F
  0.1303650291653753  0.4869835314395417  0.2597487470376905   F   F   F
  0.1712819945064297  0.4004435800895649  0.2623189735322029   F   F   F
  0.5872591261901619  0.2947068948144107  0.2644900995269168   F   F   F
  0.7152540292584320  0.3383693823373974  0.2615626361898435   F   F   F
  0.7993976786673969  0.4641246063512625  0.2609121199560320   F   F   F
  0.7586266957366661  0.5507696596801992  0.2632734944010124   F   F   F
  0.7444827088967259  0.7214145344272325  0.2677619566203191   F   F   F
  0.7680486499490371  0.8440987448468888  0.2687334824609735   F   F   F
  0.6714830149564222  0.8686940377832570  0.2694161436904565   F   F   F
  0.5478607805897653  0.7715488833797153  0.2691111962665858   F   F   F
  0.2581425842375467  0.0823626090573981  0.3815230643140026   F   F   F
  0.3817533585940254  0.1794214035800294  0.3782722974668147   F   F   F
  0.1848665116304886  0.2294666574645916  0.3772047855577156   F   F   F
  0.1614699617486011  0.1069046469438248  0.3808500334100486   F   F   F
  0.3427032163917048  0.6566229641060204  0.3740744600832571   F   F   F
  0.2146966458806716  0.6130590937853952  0.3731534545787980   F   F   F
  0.1303264856909152  0.4873130792991489  0.3724946545520780   F   F   F
  0.1709053196005144  0.4004476026717541  0.3724597572059096   F   F   F
  0.5873328572803658  0.2945003379539983  0.3743089948237071   F   F   F
  0.7154332631346350  0.3384413546819687  0.3741491647521613   F   F   F
  0.7994976395001459  0.4642770811706853  0.3736161458405931   F   F   F
  0.7585195599573566  0.5508344103387230  0.3734679905686846   F   F   F
  0.7449318392521249  0.7219329008349220  0.3782602520535505   F   F   F
  0.7681830086625752  0.8444313974253390  0.3818704873368972   F   F   F
  0.6714214649015844  0.8688225127615326  0.3824341635285933   F   F   F
  0.5478825994391556  0.7716860142119089  0.3794142502556994   F   F   F
  0.4404260782269731  0.4185022372950291  0.4983681127536152   T   T   T
  0.4650974446207670  0.4762890538149804  0.1655793463246766   F   F   F
  0.4649987260896253  0.4757940254847952  0.2614989710929763   F   F   F
  0.4646487373161037  0.4753478299612297  0.3758697575526213   F   F   F
  0.4382771025853399  0.4116447302230837  0.4632789145825242   T   T   T
  0.4845387071983723  0.5284223420054067  0.4681716007505611   T   T   T
 
  0.00000000E+00  0.00000000E+00  0.00000000E+00
  0.00000000E+00  0.00000000E+00  0.00000000E+00
  0.00000000E+00  0.00000000E+00  0.00000000E+00
  0.00000000E+00  0.00000000E+00  0.00000000E+00
  0.00000000E+00  0.00000000E+00  0.00000000E+00
  0.00000000E+00  0.00000000E+00  0.00000000E+00
  0.00000000E+00  0.00000000E+00  0.00000000E+00
  0.00000000E+00  0.00000000E+00  0.00000000E+00
  0.00000000E+00  0.00000000E+00  0.00000000E+00
  0.00000000E+00  0.00000000E+00  0.00000000E+00
  0.00000000E+00  0.00000000E+00  0.00000000E+00
  0.00000000E+00  0.00000000E+00  0.00000000E+00
  0.00000000E+00  0.00000000E+00  0.00000000E+00
  0.00000000E+00  0.00000000E+00  0.00000000E+00
  0.00000000E+00  0.00000000E+00  0.00000000E+00
  0.00000000E+00  0.00000000E+00  0.00000000E+00
  0.00000000E+00  0.00000000E+00  0.00000000E+00
  0.00000000E+00  0.00000000E+00  0.00000000E+00
  0.00000000E+00  0.00000000E+00  0.00000000E+00
  0.00000000E+00  0.00000000E+00  0.00000000E+00
  0.00000000E+00  0.00000000E+00  0.00000000E+00
  0.00000000E+00  0.00000000E+00  0.00000000E+00
  0.00000000E+00  0.00000000E+00  0.00000000E+00
  0.00000000E+00  0.00000000E+00  0.00000000E+00
  0.00000000E+00  0.00000000E+00  0.00000000E+00
  0.00000000E+00  0.00000000E+00  0.00000000E+00
  0.00000000E+00  0.00000000E+00  0.00000000E+00
  0.00000000E+00  0.00000000E+00  0.00000000E+00
  0.00000000E+00  0.00000000E+00  0.00000000E+00
  0.00000000E+00  0.00000000E+00  0.00000000E+00
  0.00000000E+00  0.00000000E+00  0.00000000E+00
  0.00000000E+00  0.00000000E+00  0.00000000E+00
  0.00000000E+00  0.00000000E+00  0.00000000E+00
  0.00000000E+00  0.00000000E+00  0.00000000E+00
  0.00000000E+00  0.00000000E+00  0.00000000E+00
  0.00000000E+00  0.00000000E+00  0.00000000E+00
  0.00000000E+00  0.00000000E+00  0.00000000E+00
  0.00000000E+00  0.00000000E+00  0.00000000E+00
  0.00000000E+00  0.00000000E+00  0.00000000E+00
  0.00000000E+00  0.00000000E+00  0.00000000E+00
  0.00000000E+00  0.00000000E+00  0.00000000E+00
  0.00000000E+00  0.00000000E+00  0.00000000E+00
  0.00000000E+00  0.00000000E+00  0.00000000E+00
  0.00000000E+00  0.00000000E+00  0.00000000E+00
  0.00000000E+00  0.00000000E+00  0.00000000E+00
  0.00000000E+00  0.00000000E+00  0.00000000E+00
  0.00000000E+00  0.00000000E+00  0.00000000E+00
  0.00000000E+00  0.00000000E+00  0.00000000E+00
  0.00000000E+00  0.00000000E+00  0.00000000E+00
  0.00000000E+00  0.00000000E+00  0.00000000E+00
  0.00000000E+00  0.00000000E+00  0.00000000E+00
  0.00000000E+00  0.00000000E+00  0.00000000E+00
  0.00000000E+00  0.00000000E+00  0.00000000E+00
  0.00000000E+00  0.00000000E+00  0.00000000E+00
  0.00000000E+00  0.00000000E+00  0.00000000E+00
  0.00000000E+00  0.00000000E+00  0.00000000E+00
  0.00000000E+00  0.00000000E+00  0.00000000E+00
  0.00000000E+00  0.00000000E+00  0.00000000E+00
  0.00000000E+00  0.00000000E+00  0.00000000E+00
  0.00000000E+00  0.00000000E+00  0.00000000E+00
  0.00000000E+00  0.00000000E+00  0.00000000E+00
  0.00000000E+00  0.00000000E+00  0.00000000E+00
  0.00000000E+00  0.00000000E+00  0.00000000E+00
  0.00000000E+00  0.00000000E+00  0.00000000E+00
  0.00000000E+00  0.00000000E+00  0.00000000E+00
  0.00000000E+00  0.00000000E+00  0.00000000E+00
  0.00000000E+00  0.00000000E+00  0.00000000E+00
  0.00000000E+00  0.00000000E+00  0.00000000E+00
  0.00000000E+00  0.00000000E+00  0.00000000E+00
  0.00000000E+00  0.00000000E+00  0.00000000E+00
  0.00000000E+00  0.00000000E+00  0.00000000E+00
  0.00000000E+00  0.00000000E+00  0.00000000E+00
  0.00000000E+00  0.00000000E+00  0.00000000E+00
  0.00000000E+00  0.00000000E+00  0.00000000E+00
  0.00000000E+00  0.00000000E+00  0.00000000E+00
  0.00000000E+00  0.00000000E+00  0.00000000E+00
  0.00000000E+00  0.00000000E+00  0.00000000E+00
  0.00000000E+00  0.00000000E+00  0.00000000E+00
  0.00000000E+00  0.00000000E+00  0.00000000E+00
  0.00000000E+00  0.00000000E+00  0.00000000E+00
  0.00000000E+00  0.00000000E+00  0.00000000E+00
  0.00000000E+00  0.00000000E+00  0.00000000E+00
  0.00000000E+00  0.00000000E+00  0.00000000E+00
  0.00000000E+00  0.00000000E+00  0.00000000E+00
  0.00000000E+00  0.00000000E+00  0.00000000E+00
  0.00000000E+00  0.00000000E+00  0.00000000E+00
  0.00000000E+00  0.00000000E+00  0.00000000E+00
  0.00000000E+00  0.00000000E+00  0.00000000E+00
  0.00000000E+00  0.00000000E+00  0.00000000E+00
  0.00000000E+00  0.00000000E+00  0.00000000E+00
  0.00000000E+00  0.00000000E+00  0.00000000E+00
  0.00000000E+00  0.00000000E+00  0.00000000E+00
  0.00000000E+00  0.00000000E+00  0.00000000E+00
  0.00000000E+00  0.00000000E+00  0.00000000E+00
  0.00000000E+00  0.00000000E+00  0.00000000E+00
  0.00000000E+00  0.00000000E+00  0.00000000E+00
  0.00000000E+00  0.00000000E+00  0.00000000E+00
  0.00000000E+00  0.00000000E+00  0.00000000E+00
  0.00000000E+00  0.00000000E+00  0.00000000E+00
  0.00000000E+00  0.00000000E+00  0.00000000E+00
  0.00000000E+00  0.00000000E+00  0.00000000E+00
  0.00000000E+00  0.00000000E+00  0.00000000E+00