 C  N  H Co  O                          
   1.00000000000000     
    11.1395953049292658  -19.2959895207139844    0.0000000000000000
    11.1364979328500873   19.2942010821614964    0.0000000000000000
     0.0000000000000000    0.0000000000000000   27.7423831521563571
   C    N    H    Co   O 
   259    24    48     3     1
Selective dynamics
Direct
  0.9999138958842906  0.9997322033623988  0.0667075818176599   F   F   F
  0.0370289629673763  0.0738634000346110  0.0657668368008615   F   F   F
  0.9999784334969064  0.1108938360162526  0.0662035048224467   F   F   F
  0.0370639569057118  0.1849964209293660  0.0648728831576619   F   F   F
  0.0000033372187147  0.2220471564412634  0.0650919893199884   F   F   F
  0.0370313391625459  0.2961001226349254  0.0631673135590418   F   F   F
  0.9999498955125219  0.3330920277846587  0.0631802329940498   F   F   F
  0.0370314581686273  0.4071897835578042  0.0613701075005295   F   F   F
  0.9999230860272093  0.4441639195914817  0.0620659994691266   F   F   F
  0.0369813830495644  0.5182442233068727  0.0618103400486874   F   F   F
  0.9998736369255781  0.5552387748222642  0.0629226063458646   F   F   F
  0.0369128007069577  0.6292854287001646  0.0640000053013097   F   F   F
  0.9997964124683989  0.6662773634840207  0.0648865904897207   F   F   F
  0.0368659834316389  0.7403763279937152  0.0661569603088736   F   F   F
  0.9998049418077173  0.7773979697510001  0.0665438477707809   F   F   F
  0.0368969799369765  0.8515298582716042  0.0670797537102814   F   F   F
  0.9998516440025185  0.8885740382165110  0.0670525423210009   F   F   F
  0.0369559815386395  0.9626916940467467  0.0666362339296285   F   F   F
  0.1110673604779393  0.9997983158365145  0.0653213418445944   F   F   F
  0.1481132257614775  0.0738443455537450  0.0629952924154011   F   F   F
  0.1110926962296901  0.1109089369483272  0.0635005173361165   F   F   F
  0.1480959935239738  0.1849454458956856  0.0615512401461729   F   F   F
  0.1110937305221995  0.2219988476358523  0.0625502935660194   F   F   F
  0.1481141783272335  0.2960979009659255  0.0606301064194739   F   F   F
  0.1110944419494828  0.3331540023975208  0.0607154888825931   F   F   F
  0.1480669660709424  0.4071702295517312  0.0581363133387640   F   F   F
  0.1110305132642253  0.4442067637347336  0.0586931190631574   F   F   F
  0.1480636366304608  0.5182669186808795  0.0576529754954365   F   F   F
  0.1110580109307477  0.5552543914473347  0.0601987837834983   F   F   F
  0.1480877630589603  0.6293499407700551  0.0614450704448330   F   F   F
  0.1110245324025172  0.6663114999447686  0.0638045568399548   F   F   F
  0.1480502037757390  0.7404011054417836  0.0652055260887039   F   F   F
  0.1109763354630147  0.7774253773637980  0.0663748511578461   F   F   F
  0.1480229817103265  0.8515227580069649  0.0667534439271478   F   F   F
  0.1109849229278126  0.8885941784092140  0.0668624843137664   F   F   F
  0.1480711199323039  0.9627138199848915  0.0657145591431529   F   F   F
  0.2221520309978189  0.9998042808786565  0.0644678143865747   F   F   F
  0.2591372843802944  0.0738154325302744  0.0618070651696243   F   F   F
  0.2221158218133112  0.1108542974176174  0.0606366715273765   F   F   F
  0.2591155250371457  0.1848851304833161  0.0585975082182415   F   F   F
  0.2221107443203536  0.2219610985928924  0.0590290430428837   F   F   F
  0.2590987714080555  0.2960152093325377  0.0581576011527503   F   F   F
  0.2221174759469520  0.3331092813138383  0.0585555681572814   F   F   F
  0.2590829837743627  0.4071521854708138  0.0570260351396925   F   F   F
  0.2220813076823305  0.4441888595542522  0.0563110669937998   F   F   F
  0.2591682233069150  0.5183340536068073  0.0553117230999334   F   F   F
  0.2221393317801059  0.5553447414301829  0.0559989692280496   F   F   F
  0.2592104313716703  0.6294336932534108  0.0574666113614342   F   F   F
  0.2221881498813048  0.6663831503534965  0.0604631459216449   F   F   F
  0.2591717780799243  0.7403960270405889  0.0630098351333856   F   F   F
  0.2221095746326895  0.7774174479659308  0.0650260392448629   F   F   F
  0.2591600291980569  0.8515323647695325  0.0660893352529754   F   F   F
  0.2221141300044138  0.8885883798535517  0.0664341356212290   F   F   F
  0.2591736466067189  0.9627221181012118  0.0655666131319421   F   F   F
  0.3332236037070331  0.9997603210849135  0.0652326460043184   F   F   F
  0.3702328593662116  0.0738675787498693  0.0634260285998920   F   F   F
  0.3332000628942993  0.1108584820634491  0.0611865513933836   F   F   F
  0.3701825004037573  0.1848848244082859  0.0590608947503952   F   F   F
  0.3331206200321830  0.2218963636570663  0.0578182223748769   F   F   F
  0.3701892075089077  0.2959868831702366  0.0574124566115941   F   F   F
  0.3331580650728441  0.3330534442777378  0.0576586563159225   F   F   F
  0.3702141120790188  0.4071560276158763  0.0578380409278054   F   F   F
  0.3331955211046349  0.4442215281833484  0.0571334150922738   F   F   F
  0.3702983231428050  0.5183255896081462  0.0566493849437464   F   F   F
  0.3332071016319631  0.5553443738047434  0.0557264296745927   F   F   F
  0.3703145054391896  0.6294012645942360  0.0568257858336310   F   F   F
  0.3332374610343720  0.6663982364021948  0.0580633419649530   F   F   F
  0.3702749998788732  0.7403889297516386  0.0611507235163344   F   F   F
  0.3332556916432097  0.7774267710655138  0.0632725525533715   F   F   F
  0.3702869670949980  0.8515016992740172  0.0652366865878236   F   F   F
  0.3332433266722532  0.8885752183683024  0.0660669830944443   F   F   F
  0.3702565203082671  0.9626817567915964  0.0660794903223518   F   F   F
  0.4443368815691286  0.9997278055104957  0.0660427369275993   F   F   F
  0.4813529715460589  0.0738468368199392  0.0649725303660986   F   F   F
  0.4443238493186357  0.1109100651051094  0.0633281981684988   F   F   F
  0.4813235384108623  0.1849458565384339  0.0609607978638493   F   F   F
  0.4442616901742937  0.2219364842317546  0.0589931736196476   F   F   F
  0.4813514622352528  0.2959866647223350  0.0572805525979589   F   F   F
  0.4442604172118934  0.3329998674467660  0.0571852735436096   F   F   F
  0.4813670163715003  0.4070597221540808  0.0573919248877175   F   F   F
  0.4443162779563608  0.4441398161202770  0.0582150941887676   F   F   F
  0.4813920964271787  0.5182270102641695  0.0580601894068238   F   F   F
  0.4443395801602463  0.5552901497562743  0.0573632296804618   F   F   F
  0.4814630017012291  0.6293671118224182  0.0572839145558035   F   F   F
  0.4443565982350819  0.6663595860076086  0.0578537286381220   F   F   F
  0.4814286408956008  0.7403926339124638  0.0598852965002337   F   F   F
  0.4443687855851692  0.7773943326294770  0.0619077241521637   F   F   F
  0.4813655868327587  0.8514419731738911  0.0641813738568331   F   F   F
  0.4443387432829198  0.8885111655267011  0.0655074728004692   F   F   F
  0.4813614555659171  0.9626499235289927  0.0662439755320250   F   F   F
  0.5554304722680854  0.9996806764156503  0.0663009726398158   F   F   F
  0.5924437964473697  0.0737887808684192  0.0659147872624573   F   F   F
  0.5554068304574002  0.1108576021444847  0.0647509347601272   F   F   F
  0.5924411633728610  0.1849369458370020  0.0625872860435166   F   F   F
  0.5554322257167357  0.2219730795939228  0.0602846823427043   F   F   F
  0.5924655854521959  0.2959523435407547  0.0572627315616288   F   F   F
  0.5553748506617424  0.3329512608496614  0.0562519810817221   F   F   F
  0.5924807493121023  0.4070131812991988  0.0554484619512436   F   F   F
  0.5554057109751014  0.4440361056878430  0.0564876040096820   F   F   F
  0.5925049562336042  0.5181439264639209  0.0568930605480773   F   F   F
  0.5555006466654788  0.5552168887521702  0.0575239720903085   F   F   F
  0.5925531932801889  0.6293000616265587  0.0573333408616108   F   F   F
  0.5555043330025171  0.6663587731387253  0.0574100887451152   F   F   F
  0.5925730826701496  0.7404358985903698  0.0582716607212603   F   F   F
  0.5555167460009685  0.7774222614699937  0.0600137132401173   F   F   F
  0.5924992609678057  0.8514552649701770  0.0623607161414128   F   F   F
  0.5554535805473506  0.8884665764146789  0.0643711953538997   F   F   F
  0.5924619080606917  0.9625822931772063  0.0658480055930681   F   F   F
  0.6665203934153965  0.9996331191180516  0.0661036717494241   F   F   F
  0.7035779287676291  0.0737822736407665  0.0665521536582574   F   F   F
  0.6665361704919803  0.1108425076152670  0.0659279166859150   F   F   F
  0.7035740984631076  0.1849404658623186  0.0646225065634809   F   F   F
  0.6665182193131116  0.2219670660004667  0.0624041822136689   F   F   F
  0.7035004033401790  0.2959707711134385  0.0598134483501482   F   F   F
  0.6664978209766375  0.3329297462992429  0.0568049418753560   F   F   F
  0.7035766059725361  0.4070358896659414  0.0556856125711107   F   F   F
  0.6665479536962380  0.4440470132001693  0.0551834288613406   F   F   F
  0.7036301295819243  0.5181819787790261  0.0563839410932445   F   F   F
  0.6666116539033382  0.5552086436279353  0.0569505162169861   F   F   F
  0.7035731089359132  0.6292547094543934  0.0584538476540786   F   F   F
  0.6665980194756287  0.6663306595264871  0.0579087718600206   F   F   F
  0.7036056789443137  0.7404025682089284  0.0590574195951987   F   F   F
  0.6665938845924657  0.7774527688977386  0.0590428251953554   F   F   F
  0.7035822695672067  0.8514664744890084  0.0614671256259030   F   F   F
  0.6665592885445477  0.8885064832985350  0.0628873679569892   F   F   F
  0.7035487718957256  0.9625534863546292  0.0652276936038163   F   F   F
  0.7776421031002556  0.9996559504281848  0.0661562179816642   F   F   F
  0.8147230379308894  0.0737807365843608  0.0669741181675079   F   F   F
  0.7776636737805873  0.1108445377835849  0.0667389853325417   F   F   F
  0.8147139813475235  0.1849410004689531  0.0661221700144168   F   F   F
  0.7776380915560992  0.2219544732651286  0.0648304263398458   F   F   F
  0.8146711649411458  0.2960559775858513  0.0633961763170134   F   F   F
  0.7776034826945875  0.3330269129654724  0.0609855313416006   F   F   F
  0.8146387761163254  0.4071084950634258  0.0599456660515543   F   F   F
  0.7776258625830579  0.4441159507626224  0.0575395107902139   F   F   F
  0.8146583464348396  0.5181651364166697  0.0588631435483364   F   F   F
  0.7776190896278337  0.5551989437791605  0.0584007626111003   F   F   F
  0.8146055996225670  0.6292415594236900  0.0610238971297932   F   F   F
  0.7775749535695340  0.6662719744179668  0.0607609091049071   F   F   F
  0.8146091313185480  0.7403681621547591  0.0626805826833987   F   F   F
  0.7776002498374268  0.7774173020204742  0.0616806165098893   F   F   F
  0.8146171161862767  0.8514499848526782  0.0637976526828155   F   F   F
  0.7775988610848827  0.8885078582086052  0.0635764223646405   F   F   F
  0.8146544611639044  0.9625763949948762  0.0657648141930380   F   F   F
  0.8887659229679485  0.9996941599240046  0.0668280307853735   F   F   F
  0.9258601428888014  0.0738079550020458  0.0670577606745866   F   F   F
  0.8888160708545740  0.1108533461941690  0.0670479739887568   F   F   F
  0.9259043218432907  0.1849837132704621  0.0663326875761783   F   F   F
  0.8888301823225220  0.2219956132944887  0.0658606393366696   F   F   F
  0.9258886437840914  0.2960797567448452  0.0645197239543336   F   F   F
  0.8887679684574863  0.3330746863151290  0.0636456368055391   F   F   F
  0.9258008107700846  0.4071229430957288  0.0627053017129953   F   F   F
  0.8886971589800083  0.4441117368043734  0.0617156928807816   F   F   F
  0.9257623903327783  0.5182035645816825  0.0622009541224173   F   F   F
  0.8886584943825540  0.5551833872808629  0.0616279915145412   F   F   F
  0.9257311546912561  0.6292697321547394  0.0635372936241012   F   F   F
  0.8886528197586898  0.6662788733834972  0.0635139730608216   F   F   F
  0.9256950312381136  0.7403357732574918  0.0653564354616591   F   F   F
  0.8886346749377623  0.7773781534727959  0.0650696418410845   F   F   F
  0.9257408931475837  0.8514935155341448  0.0663257355212039   F   F   F
  0.8886917122193623  0.8885136929569697  0.0659531876643200   F   F   F
  0.9257990771969489  0.9626411538507966  0.0668179867413556   F   F   F
  0.2700760590913305  0.1361855698533319  0.1486709751920188   F   F   F
  0.3391696291659301  0.1897553201847586  0.1489352455144370   F   F   F
  0.3517903297291838  0.2577471845713930  0.1492372901963535   F   F   F
  0.2966353789971663  0.2717049309191779  0.1488055614072650   F   F   F
  0.2277413716674559  0.2182633582189695  0.1482767447384603   F   F   F
  0.2151626615778000  0.1502010258504924  0.1485207234794856   F   F   F
  0.3279367304519454  0.3469275665797724  0.1497899717360553   F   F   F
  0.4156193116615370  0.3249926626612876  0.1505094821963979   F   F   F
  0.3195333203481425  0.4458993016533341  0.1489247706486623   F   F   F
  0.3952864102018410  0.5600102987494466  0.1497274798696395   F   F   F
  0.2786837358555090  0.4804273794663132  0.1465686357776264   F   F   F
  0.3262652444900596  0.5522631224295012  0.1470495176340521   F   F   F
  0.3036435387138496  0.6003520156865889  0.1454951462080984   F   F   F
  0.2321752073227827  0.5747610192593555  0.1437540254939051   F   F   F
  0.1847200112508034  0.5031420950127057  0.1435394889090347   F   F   F
  0.2073922257781504  0.4549264379602249  0.1447223650006038   F   F   F
  0.5347418604279284  0.3923049531689031  0.1498064100172414   F   F   F
  0.6105918928234360  0.5063888875343068  0.1493537835936749   F   F   F
  0.6261535141830379  0.3517070925714023  0.1459061899287164   F   F   F
  0.6975955319147857  0.3770600012970178  0.1444307733253964   F   F   F
  0.7451636725626187  0.4486373015639273  0.1441935397593070   F   F   F
  0.7226843428229017  0.4970363227565286  0.1454111303680534   F   F   F
  0.6514248614883087  0.4717675292907515  0.1470759772151240   F   F   F
  0.6037057345605845  0.3999381701659033  0.1473477671827794   F   F   F
  0.6021353037222852  0.6053880060533672  0.1502139583768951   F   F   F
  0.5144160500952353  0.6273536360804783  0.1509530665916756   F   F   F
  0.6334106703958682  0.6806249118629211  0.1493804362237654   F   F   F
  0.7022749097146388  0.7341184909644412  0.1489271761928705   F   F   F
  0.7148125950311410  0.8021634220148783  0.1494068818968941   F   F   F
  0.6598854294317391  0.8161636252436111  0.1498020842085310   F   F   F
  0.5908177869714990  0.7625596433405306  0.1499612854007211   F   F   F
  0.5782368193627647  0.6945768912052372  0.1499176276782563   F   F   F
  0.2698865478242922  0.1363339203111451  0.2463766961636935   F   F   F
  0.3389312515107221  0.1900099437533100  0.2464522310888739   F   F   F
  0.3513182836145461  0.2578249967414692  0.2459633813378090   F   F   F
  0.2962387827470181  0.2718344427692116  0.2455427463155360   F   F   F
  0.2274372994313651  0.2183860389099834  0.2456162167578455   F   F   F
  0.2149845870608829  0.1503048107945233  0.2459652907997949   F   F   F
  0.3276951260119247  0.3470983323050518  0.2439200931502867   F   F   F
  0.4151442452378333  0.3248631328847367  0.2445260827726656   F   F   F
  0.3195039145055674  0.4460863346644786  0.2428487062501219   F   F   F
  0.3956545647130056  0.5599524561309508  0.2435772526511215   F   F   F
  0.2788937413179369  0.4810101373820288  0.2427915157249458   F   F   F
  0.3268283768167635  0.5527292867052154  0.2432831425834792   F   F   F
  0.3047565737385085  0.6012316358282135  0.2422001385365675   F   F   F
  0.2333643149738265  0.5761898437132942  0.2403152231847798   F   F   F
  0.1855933367783678  0.5046904529472016  0.2398352882216344   F   F   F
  0.2077524336567365  0.4560340563403926  0.2412124419403199   F   F   F
  0.5341769633217908  0.3914706206923810  0.2436210289008613   F   F   F
  0.6103831993597169  0.5053280849049528  0.2432631484063705   F   F   F
  0.6249423273109329  0.3500450115378229  0.2426884906072289   F   F   F
  0.6963271540500529  0.3749916055501501  0.2411407185865500   F   F   F
  0.7441623300241105  0.4464738618170543  0.2407922797316857   F   F   F
  0.7220854998057717  0.4952055279543544  0.2420248775452194   F   F   F
  0.6509506862451744  0.4703357995566577  0.2433282548907840   F   F   F
  0.6029636873396029  0.3986266450884415  0.2436276064572453   F   F   F
  0.6021795023921612  0.6043305325094153  0.2444454099944480   F   F   F
  0.5146971382102237  0.6265712865548849  0.2449287750340972   F   F   F
  0.6335901828454666  0.6795858822006409  0.2462346038341963   F   F   F
  0.7023843073996474  0.7330146014838874  0.2465300198296063   F   F   F
  0.7148532830224852  0.8010930834847727  0.2470892751640790   F   F   F
  0.6599603266240024  0.8150791097638148  0.2474640605250045   F   F   F
  0.5909073018229236  0.7614185118974817  0.2472839335755310   F   F   F
  0.5785103250768344  0.6935961969484126  0.2466019986406636   F   F   F
  0.2695443631377756  0.1357808258287747  0.3471940374651226   F   F   F
  0.3385844297608074  0.1893969059717548  0.3460706874144392   F   F   F
  0.3509782485173005  0.2572879058620572  0.3445538806409303   F   F   F
  0.2957991320631450  0.2713184829413748  0.3441665436295622   F   F   F
  0.2269145740767939  0.2178025657781504  0.3453149440598864   F   F   F
  0.2145243548436397  0.1497796479232534  0.3468280261324566   F   F   F
  0.3271393822814730  0.3465407081065663  0.3414264846262256   F   F   F
  0.4148230875226915  0.3242592393857322  0.3419870942268446   F   F   F
  0.3189416431001462  0.4461330611912686  0.3402902712700850   F   F   F
  0.3953172290556637  0.5603012055880328  0.3409867911878735   F   F   F
  0.2784061482124116  0.4811576834578517  0.3412412347284430   F   F   F
  0.3264452393080930  0.5529957485750998  0.3416827211836733   F   F   F
  0.3043449359677624  0.6015819046140152  0.3415499283622339   F   F   F
  0.2329193160140051  0.5765127823441603  0.3409394917149413   F   F   F
  0.1850200711927315  0.5048658102985968  0.3405583260316263   F   F   F
  0.2071347396477137  0.4561557800974043  0.3407382616289851   F   F   F
  0.5345601308659269  0.3912972251665821  0.3409970243463789   F   F   F
  0.6109668072688237  0.5054532064867772  0.3407664065848977   F   F   F
  0.6254374546002808  0.3499101500280730  0.3420240760496824   F   F   F
  0.6968509533972096  0.3749045618159244  0.3417599173714692   F   F   F
  0.7447910751845654  0.4465373991786095  0.3415050472542021   F   F   F
  0.7227350109503234  0.4952994575587013  0.3415471505295500   F   F   F
  0.6514741370527162  0.4703884990762930  0.3417863718902936   F   F   F
  0.6034028431543916  0.3985553499002350  0.3419994020665627   F   F   F
  0.6027799256941719  0.6050660124885638  0.3421006345727022   F   F   F
  0.5150662090475393  0.6273538844452773  0.3425171048929343   F   F   F
  0.6340903458320142  0.6802592123058773  0.3450347567417253   F   F   F
  0.7029639269391836  0.7337799937012903  0.3463306940565047   F   F   F
  0.7153433530198612  0.8017897687554196  0.3479917366416174   F   F   F
  0.6603164515848761  0.8157828309454587  0.3483047341481011   F   F   F
  0.5912923078730827  0.7621705440849240  0.3469624378477292   F   F   F
  0.5789061316971598  0.6942908880058454  0.3453522081604419   F   F   F
  0.4593424628652026  0.4735320132520560  0.4114242723946868   T   T   T
  0.4000667574290304  0.3783443820532995  0.1512855143376513   F   F   F
  0.2902028122348383  0.3775476128182262  0.1486187092121227   F   F   F
  0.3900488592330973  0.4948826381062972  0.1510003355870637   F   F   F
  0.4777303607431662  0.3308340244287109  0.1499056106434864   F   F   F
  0.5400523428176385  0.4574718138192964  0.1511988816513039   F   F   F
  0.6398625641464477  0.5747355544050095  0.1490871583412883   F   F   F
  0.5300161791069797  0.5740181065234182  0.1516247650192071   F   F   F
  0.4522844430078052  0.6214803058747691  0.1501870905234668   F   F   F
  0.3998176758824528  0.3784129948203443  0.2430782124285429   F   F   F
  0.2899766302697273  0.3777681727471602  0.2435139274356217   F   F   F
  0.3902062194306808  0.4947622657850701  0.2426788482747924   F   F   F
  0.4769762279512193  0.3302059440625271  0.2446274888149418   F   F   F
  0.5396869507934667  0.4567075022437237  0.2428118735694014   F   F   F
  0.6399003281546669  0.5736571297091899  0.2440898580205371   F   F   F
  0.5300618251307725  0.5730464361747138  0.2434228425829801   F   F   F
  0.4528541253878799  0.6212116864221287  0.2448453564881419   F   F   F
  0.3988323991452489  0.3770151305474485  0.3399129795972584   F   F   F
  0.2897212719041917  0.3777023918219058  0.3415189827651304   F   F   F
  0.3891467867263216  0.4951078973522840  0.3395239772896943   F   F   F
  0.4770007616194007  0.3301002006290759  0.3425288682605085   F   F   F
  0.5407680282419349  0.4565216861713282  0.3396662108347854   F   F   F
  0.6401670217223554  0.5738705444626859  0.3422494649996963   F   F   F
  0.5311055379747103  0.5746499141828849  0.3403251469234974   F   F   F
  0.4528675673664182  0.6214848377487172  0.3428761685545112   F   F   F
  0.2583940659241648  0.0824526265418655  0.1487380955200308   F   F   F
  0.3819129247105408  0.1791912839385716  0.1492975537498253   F   F   F
  0.1856123035944037  0.2297481556335299  0.1480646818569795   F   F   F
  0.1619323866468747  0.1071485770390552  0.1483945644142253   F   F   F
  0.3406920524444104  0.6557741549761857  0.1458489052196867   F   F   F
  0.2127218220115665  0.6109605104216556  0.1424201872708935   F   F   F
  0.1293714966638291  0.4851361414898321  0.1422758018977319   F   F   F
  0.1711166760406400  0.3993204345524859  0.1445485907561022   F   F   F
  0.5889743068785904  0.2963079166333529  0.1461679161535727   F   F   F
  0.7168880749089865  0.3407255322968012  0.1432570887670224   F   F   F
  0.8004984359757543  0.4665037342773246  0.1430588579652081   F   F   F
  0.7591368017636739  0.5525950300421911  0.1454164866624268   F   F   F
  0.7444264995603334  0.7226584733429604  0.1484878665863292   F   F   F
  0.7680448643732944  0.8452156748748365  0.1493056024909336   F   F   F
  0.6715284844083698  0.8698774550902542  0.1501440973088819   F   F   F
  0.5480148568067307  0.7730259142434122  0.1504884406115536   F   F   F
  0.2583192156258320  0.0826018403625284  0.2461297443426247   F   F   F
  0.3819097143715382  0.1797615043915073  0.2463478585349037   F   F   F
  0.1852612757550176  0.2298189936227786  0.2448422687190686   F   F   F
  0.1617359743209548  0.1071720196180266  0.2453886618277110   F   F   F
  0.3422592216469553  0.6565729196178225  0.2420830447872504   F   F   F
  0.2143129771701737  0.6127287034799167  0.2385628625803875   F   F   F
  0.1302962659276758  0.4869623481718151  0.2377100368692169   F   F   F
  0.1712229622061798  0.4004624886841199  0.2403291623456525   F   F   F
  0.5873591354873966  0.2947244423330275  0.2424331969954281   F   F   F
  0.7153206388613640  0.3384013726150954  0.2395110943013421   F   F   F
  0.7994615824097764  0.4641478753343620  0.2389130935434238   F   F   F
  0.7586893475028660  0.5507646774567476  0.2412815826315580   F   F   F
  0.7445384157549952  0.7215492734802780  0.2458222195243138   F   F   F
  0.7681110946267395  0.8442140614255607  0.2467759924503667   F   F   F
  0.6715534899790256  0.8688184065951461  0.2474381117170239   F   F   F
  0.5479490995522625  0.7716954810209558  0.2471390492846623   F   F   F
  0.2579064801960058  0.0820218994124460  0.3471718304609581   F   F   F
  0.3815127408324841  0.1790774152387016  0.3453943197993610   F   F   F
  0.1847037270092287  0.2291634282255188  0.3440484246742344   F   F   F
  0.1612872859936658  0.1066132160963988  0.3465262215756013   F   F   F
  0.3418271587191057  0.6569218410929452  0.3408356538036799   F   F   F
  0.2138028271261234  0.6130172924328363  0.3395223301096664   F   F   F
  0.1297119091708652  0.4872290882238985  0.3388783834846620   F   F   F
  0.1705549505932851  0.4006111978687770  0.3394440757564183   F   F   F
  0.5879196688912032  0.2945841157098812  0.3412201909028028   F   F   F
  0.7159408328605110  0.3383671680455720  0.3404968888134192   F   F   F
  0.8001073223331829  0.4641412022436029  0.3400688821301188   F   F   F
  0.7594017585122046  0.5508297366997468  0.3403808661194745   F   F   F
  0.7451746989900272  0.7224132656224143  0.3450939268153164   F   F   F
  0.7685862115509394  0.8449519532038039  0.3479009444947891   F   F   F
  0.6719417542472357  0.8695349304174513  0.3484578707574855   F   F   F
  0.5483522929107991  0.7724640725784866  0.3461928260455593   F   F   F
  0.4650785149865584  0.4762765919549068  0.1541224037840578   F   F   F
  0.4649554190592440  0.4757971995190360  0.2407042072944918   F   F   F
  0.4649985126931782  0.4758969039251468  0.3453972154237732   F   F   F
  0.4463290964325797  0.4683925221244780  0.4522660811035196   T   T   T
 
  0.00000000E+00  0.00000000E+00  0.00000000E+00
  0.00000000E+00  0.00000000E+00  0.00000000E+00
  0.00000000E+00  0.00000000E+00  0.00000000E+00
  0.00000000E+00  0.00000000E+00  0.00000000E+00
  0.00000000E+00  0.00000000E+00  0.00000000E+00
  0.00000000E+00  0.00000000E+00  0.00000000E+00
  0.00000000E+00  0.00000000E+00  0.00000000E+00
  0.00000000E+00  0.00000000E+00  0.00000000E+00
  0.00000000E+00  0.00000000E+00  0.00000000E+00
  0.00000000E+00  0.00000000E+00  0.00000000E+00
  0.00000000E+00  0.00000000E+00  0.00000000E+00
  0.00000000E+00  0.00000000E+00  0.00000000E+00
  0.00000000E+00  0.00000000E+00  0.00000000E+00
  0.00000000E+00  0.00000000E+00  0.00000000E+00
  0.00000000E+00  0.00000000E+00  0.00000000E+00
  0.00000000E+00  0.00000000E+00  0.00000000E+00
  0.00000000E+00  0.00000000E+00  0.00000000E+00
  0.00000000E+00  0.00000000E+00  0.00000000E+00
  0.00000000E+00  0.00000000E+00  0.00000000E+00
  0.00000000E+00  0.00000000E+00  0.00000000E+00
  0.00000000E+00  0.00000000E+00  0.00000000E+00
  0.00000000E+00  0.00000000E+00  0.00000000E+00
  0.00000000E+00  0.00000000E+00  0.00000000E+00
  0.00000000E+00  0.00000000E+00  0.00000000E+00
  0.00000000E+00  0.00000000E+00  0.00000000E+00
  0.00000000E+00  0.00000000E+00  0.00000000E+00
  0.00000000E+00  0.00000000E+00  0.00000000E+00
  0.00000000E+00  0.00000000E+00  0.00000000E+00
  0.00000000E+00  0.00000000E+00  0.00000000E+00
  0.00000000E+00  0.00000000E+00  0.00000000E+00
  0.00000000E+00  0.00000000E+00  0.00000000E+00
  0.00000000E+00  0.00000000E+00  0.00000000E+00
  0.00000000E+00  0.00000000E+00  0.00000000E+00
  0.00000000E+00  0.00000000E+00  0.00000000E+00
  0.00000000E+00  0.00000000E+00  0.00000000E+00
  0.00000000E+00  0.00000000E+00  0.00000000E+00
  0.00000000E+00  0.00000000E+00  0.00000000E+00
  0.00000000E+00  0.00000000E+00  0.00000000E+00
  0.00000000E+00  0.00000000E+00  0.00000000E+00
  0.00000000E+00  0.00000000E+00  0.00000000E+00
  0.00000000E+00  0.00000000E+00  0.00000000E+00
  0.00000000E+00  0.00000000E+00  0.00000000E+00
  0.00000000E+00  0.00000000E+00  0.00000000E+00
  0.00000000E+00  0.00000000E+00  0.00000000E+00
  0.00000000E+00  0.00000000E+00  0.00000000E+00
  0.00000000E+00  0.00000000E+00  0.00000000E+00
  0.00000000E+00  0.00000000E+00  0.00000000E+00
  0.00000000E+00  0.00000000E+00  0.00000000E+00
  0.00000000E+00  0.00000000E+00  0.00000000E+00
  0.00000000E+00  0.00000000E+00  0.00000000E+00
  0.00000000E+00  0.00000000E+00  0.00000000E+00
  0.00000000E+00  0.00000000E+00  0.00000000E+00
  0.00000000E+00  0.00000000E+00  0.00000000E+00
  0.00000000E+00  0.00000000E+00  0.00000000E+00
  0.00000000E+00  0.00000000E+00  0.00000000E+00
  0.00000000E+00  0.00000000E+00  0.00000000E+00
  0.00000000E+00  0.00000000E+00  0.00000000E+00
  0.00000000E+00  0.00000000E+00  0.00000000E+00
  0.00000000E+00  0.00000000E+00  0.00000000E+00
  0.00000000E+00  0.00000000E+00  0.00000000E+00
  0.00000000E+00  0.00000000E+00  0.00000000E+00
  0.00000000E+00  0.00000000E+00  0.00000000E+00
  0.00000000E+00  0.00000000E+00  0.00000000E+00
  0.00000000E+00  0.00000000E+00  0.00000000E+00
  0.00000000E+00  0.00000000E+00  0.00000000E+00
  0.00000000E+00  0.00000000E+00  0.00000000E+00
  0.00000000E+00  0.00000000E+00  0.00000000E+00
  0.00000000E+00  0.00000000E+00  0.00000000E+00
  0.00000000E+00  0.00000000E+00  0.00000000E+00
  0.00000000E+00  0.00000000E+00  0.00000000E+00
  0.00000000E+00  0.00000000E+00  0.00000000E+00
  0.00000000E+00  0.00000000E+00  0.00000000E+00
  0.00000000E+00  0.00000000E+00  0.00000000E+00
  0.00000000E+00  0.00000000E+00  0.00000000E+00
  0.00000000E+00  0.00000000E+00  0.00000000E+00
  0.00000000E+00  0.00000000E+00  0.00000000E+00
  0.00000000E+00  0.00000000E+00  0.00000000E+00
  0.00000000E+00  0.00000000E+00  0.00000000E+00
  0.00000000E+00  0.00000000E+00  0.00000000E+00
  0.00000000E+00  0.00000000E+00  0.00000000E+00
  0.00000000E+00  0.00000000E+00  0.00000000E+00
  0.00000000E+00  0.00000000E+00  0.00000000E+00
  0.00000000E+00  0.00000000E+00  0.00000000E+00
  0.00000000E+00  0.00000000E+00  0.00000000E+00
  0.00000000E+00  0.00000000E+00  0.00000000E+00
  0.00000000E+00  0.00000000E+00  0.00000000E+00
  0.00000000E+00  0.00000000E+00  0.00000000E+00
  0.00000000E+00  0.00000000E+00  0.00000000E+00
  0.00000000E+00  0.00000000E+00  0.00000000E+00
  0.00000000E+00  0.00000000E+00  0.00000000E+00
  0.00000000E+00  0.00000000E+00  0.00000000E+00
  0.00000000E+00  0.00000000E+00  0.00000000E+00
  0.00000000E+00  0.00000000E+00  0.00000000E+00
  0.00000000E+00  0.00000000E+00  0.00000000E+00
  0.00000000E+00  0.00000000E+00  0.00000000E+00
  0.00000000E+00  0.00000000E+00  0.00000000E+00
  0.00000000E+00  0.00000000E+00  0.00000000E+00
  0.00000000E+00  0.00000000E+00  0.00000000E+00
  0.00000000E+00  0.00000000E+00  0.00000000E+00
  0.00000000E+00  0.00000000E+00  0.00000000E+00
  0.00000000E+00  0.00000000E+00  0.00000000E+00
  0.00000000E+00  0.00000000E+00  0.00000000E+00
  0.00000000E+00  0.00000000E+00  0.00000000E+00
  0.00000000E+00  0.00000000E+00  0.00000000E+00
  0.00000000E+00  0.00000000E+00  0.00000000E+00