 C  N  H Co                             
   1.00000000000000     
    11.1395953049292658  -19.2959895207139844    0.0000000000000000
    11.1364979328500873   19.2942010821614964    0.0000000000000000
     0.0000000000000000    0.0000000000000000   27.7423831521563571
   C    N    H    Co
   258    24    48     3
Direct
  0.9999199567712418  0.9997624144250815  0.0671252574112884
  0.0370372203855138  0.0738993517897369  0.0662409685799077
  0.9999842491881299  0.1109240470794055  0.0666340667990734
  0.0370719639872153  0.1850300836549956  0.0653301246295177
  1.0000083105246451  0.2220784451637197  0.0654356970032103
  0.0370428090801341  0.2961292130078874  0.0635567766912236
  0.9999584880136866  0.3331211672539409  0.0635141068947934
  0.0370491678836123  0.4072258914202739  0.0617695755842389
  0.9999403253456521  0.4441946949588643  0.0624537971710221
  0.0370079772219851  0.5182805358047510  0.0621871613437438
  0.9999016630747368  0.5552776875890317  0.0632735735981816
  0.0369316892950705  0.6293216665070177  0.0642366982782855
  0.9998171355785522  0.6663146774314479  0.0651379475262487
  0.0368839249323298  0.7404208293131170  0.0662922962404236
  0.9998203481690573  0.7774335223375641  0.0667782958615907
  0.0369150672045681  0.8515690274130617  0.0672793274859372
  0.9998647672613985  0.8886083126931827  0.0673779509771855
  0.0369665761634561  0.9627244379713168  0.0669852736762023
  0.1110769720163503 -0.0001770566543266  0.0656222400305979
  0.1481273849886317  0.0738771350873766  0.0634275036556213
  0.1111053100616718  0.1109382969858416  0.0640149228104364
  0.1481084898870263  0.1849751680881795  0.0621246807027377
  0.1111030859100173  0.2220272073728801  0.0631125813774168
  0.1481316032672408  0.2961286994951053  0.0612319249098438
  0.1111097395457902  0.3331760017264668  0.0612354172726181
  0.1480920762267750  0.4071904343680648  0.0586600348935902
  0.1110575041690938  0.4442292190396798  0.0591452919112379
  0.1480876116256517  0.5182846820073062  0.0580991609778359
  0.1110774432126772  0.5552736638642087  0.0605595207686326
  0.1481029085464958  0.6293748520634157  0.0617080885027054
  0.1110409696583744  0.6663376085112477  0.0639591691949825
  0.1480642692893811  0.7404338797530517  0.0652519829243300
  0.1109929712834412  0.7774619117179805  0.0663803777677033
  0.1480378359407353  0.8515536944364976  0.0667339024944397
  0.1109967676232177  0.8886215372364531  0.0669352161618996
  0.1480802636677732  0.9627426068901151  0.0658782864575058
  0.2221674081393479 -0.0001740748175377  0.0646914162185019
  0.2591590098663168  0.0738424513365648  0.0622385194597844
  0.2221334957507348  0.1108826058447744  0.0611439478215878
  0.2591400703068557  0.1849188971645024  0.0592396003953174
  0.2221297512802436  0.2219868068782623  0.0596640008467616
  0.2591198412387339  0.2960429235968158  0.0588852277482510
  0.2221413524996448  0.3331339164608496  0.0592625503613352
  0.2591111931278703  0.4071738302899796  0.0577466776395710
  0.2221027866272665  0.4441960795730113  0.0569303799962609
  0.2591886922881385  0.5183407861603504  0.0559228026732881
  0.2221664861070146  0.5553499948978494  0.0565025691377597
  0.2592349687245417  0.6294474762511467  0.0579329179247993
  0.2222042697721769  0.6663947295853160  0.0607885779442635
  0.2591828035365539  0.7404132384704003  0.0632511847575515
  0.2221170085132260  0.7774363935209845  0.0651081319235370
  0.2591701157965140  0.8515555577628999  0.0661465728805636
  0.2221275502225611  0.8886074442846950  0.0664460827137006
  0.2591913586809947  0.9627453956794182  0.0657137531650524
  0.3332364989711784  0.9997756801294162  0.0654981590941434
  0.3702520111034617  0.0738914416247531  0.0638663213454676
  0.3332235221562848  0.1108855879756572  0.0617280520255847
  0.3702107416991746  0.1849174472752102  0.0597504677047964
  0.3331471829467446  0.2219302793823349  0.0585648048970621
  0.3702097242810173  0.2960103025311243  0.0582740562676538
  0.3331781718740367  0.3330739606233243  0.0585131488578666
  0.3702251170729254  0.4071698385224176  0.0587825929865190
  0.3332223446886350  0.4442317804475612  0.0579725717027323
  0.3703250032031777  0.5183455163856422  0.0574753672908726
  0.3332343938882154  0.5553501983612423  0.0564349930349239
  0.3703381283888370  0.6294111107454442  0.0574958355244706
  0.3332508898172305  0.6663999267119590  0.0585932857519104
  0.3702869940923572  0.7403998507906825  0.0616145003667721
  0.3332661561750500  0.7774367216474815  0.0636042717274697
  0.3702957124747879  0.8515210725950189  0.0655159282098664
  0.3332513092291771  0.8885928275061968  0.0662376987206762
  0.3702672616017136  0.9626997126801945  0.0663093124341333
  0.4443449076566646  0.9997405580509267  0.0663233820139366
  0.4813687180698880  0.0738648341240653  0.0653256250542006
  0.4443392843736170  0.1109296118612418  0.0638050548305182
  0.4813351397610990  0.1849748144261057  0.0615766787283607
  0.4442785118709825  0.2219652940551145  0.0597169083302707
  0.4813727901063207  0.2960271254347265  0.0580848375721472
  0.4442846974143940  0.3330358233877146  0.0580793792881985
  0.4813903955160387  0.4070826449822162  0.0583785257811788
  0.4443294325959934  0.4441523894125755  0.0593647366154017
  0.4814155506070043  0.5182615994362725  0.0591440210644135
  0.4443571528902943  0.5553058110134428  0.0582817956484599
  0.4814741230440927  0.6293776934291658  0.0581213250922085
  0.4443723348455338  0.6663615678886022  0.0585941614658218
  0.4814489511753703  0.7404118435425661  0.0605434160376685
  0.4443838149203332  0.7774059126147401  0.0624351740130846
  0.4813758776069016  0.8514621664509030  0.0646038388739512
  0.4443408102938010  0.8885233365437319  0.0658381239685233
  0.4813678827998552  0.9626689319006656  0.0665227370339678
  0.5554363335617699  0.9997042561835654  0.0665378545611572
  0.5924531536909994  0.0738129785835505  0.0661230376325021
  0.5554148960478715  0.1108784538739404  0.0650691842722146
  0.5924488574400620  0.1849672607329872  0.0629575824663833
  0.5554405436053059  0.2220042810915235  0.0608451474782999
  0.5924760562212773  0.2959961225807616  0.0579069894476942
  0.5553820683060857  0.3329912557746590  0.0570086421977076
  0.5924848952417401  0.4070555545826671  0.0562163356475920
  0.5554153222603179  0.4440674070637244  0.0573566004359305
  0.5925204580866538  0.5181901039033057  0.0577443376642978
  0.5555246829771457  0.5552460224794571  0.0584383874870948
  0.5925703173173414  0.6293294703433193  0.0581520844947429
  0.5555145762235590  0.6663712437587318  0.0582239871638372
  0.5925768825061775  0.7404452944494302  0.0589753954555558
  0.5555258289371191  0.7774359268297710  0.0606452338907607
  0.5925044656760374  0.8514785794759658  0.0628393758338545
  0.5554607975632867  0.8884912144603277  0.0647636688255442
  0.5924724400107854  0.9626153633701880  0.0660927804540996
  0.6665241527652699  0.9996673436766911  0.0662404127418298
  0.7035850728883304  0.0738186132148103  0.0665855257570745
  0.6665429085265490  0.1108684755946681  0.0660181869758992
  0.7035842945202307  0.1849744268835577  0.0647195930929257
  0.6665240106575461  0.2219993792158548  0.0626613118196714
  0.7035053397994347  0.2960141463999010  0.0601697154520420
  0.6664995513203092  0.3329787257909012  0.0573687583706527
  0.7035848551718710  0.4070933783326309  0.0562870119979754
  0.6665564003794819  0.4440911170384165  0.0558862684960808
  0.7036391644720121  0.5182251987622659  0.0570939781834928
  0.6666186457149150  0.5552493927835790  0.0577193821213255
  0.7035832122427657  0.6292974910481116  0.0591741068835683
  0.6666056500313794  0.6663618512965387  0.0586390347159761
  0.7036146698700370  0.7404382693771517  0.0596730638417728
  0.6665906407063010  0.7774663605645933  0.0596371222211766
  0.7035804680992535  0.8514901463665784  0.0619163305922524
  0.6665632477146960  0.8885362410323219  0.0632643017093398
  0.7035526064075507  0.9625895638605597  0.0654189000677207
  0.7776458151934423  0.9996918181065959  0.0662872088081004
  0.8147294466039438  0.0738196496661400  0.0670464938673593
  0.7776695116834329  0.1108785948379373  0.0667470964270323
  0.8147177692764612  0.1849716167977040  0.0661471273456375
  0.7776419051555856  0.2219843536995103  0.0648798224692125
  0.8146789842788962  0.2960951752469104  0.0635447984463884
  0.7776139143634712  0.3330688945389452  0.0612652010308027
  0.8146598428954729  0.4071605050732470  0.0603208042693128
  0.7776398189248738  0.4441654861067122  0.0580429073081757
  0.8146750015683273  0.5182081903215288  0.0593971113163466
  0.7776268947060425  0.5552327637757175  0.0590210715865796
  0.8146170998087240  0.6292809331034931  0.0616177174804025
  0.7775853720999246  0.6663065707362729  0.0613967452366752
  0.8146219041497039  0.7404097730426833  0.0632524471682903
  0.7776066717546029  0.7774520149334510  0.0622171430555170
  0.8146194512693387  0.8514858076103579  0.0642432882024962
  0.7775915968456549  0.8885325252209529  0.0639477604564619
  0.8146568476614132  0.9626169610983233  0.0659999950489943
  0.8887668563026513  0.9997278016809510  0.0671149350716648
  0.9258614078926858  0.0738408354613225  0.0673481206810010
  0.8888164944459886  0.1108827136821271  0.0672225288759476
  0.9259049202635534  0.1850183479261880  0.0665364510466995
  0.8888336462292545  0.2220225011200025  0.0659845898995080
  0.9258978862619527  0.2961139001596080  0.0647286502763306
  0.8887780721090449  0.3331084013568383  0.0638592329976850
  0.9258151507042834  0.4071575254983115  0.0630368805606038
  0.8887138805849260  0.4441523044351204  0.0620928448005849
  0.9257920154023531  0.5182493868175386  0.0626219377560102
  0.8886834783482048  0.5552194689435409  0.0621003733363656
  0.9257568638357018  0.6293122168233237  0.0639464930544923
  0.8886699134049649  0.6663143402950042  0.0639833461679423
  0.9257065050565992  0.7403709669190572  0.0657584817262989
  0.8886444068681912  0.7774130778780441  0.0655583418724320
  0.9257504811431092  0.8515358262336636  0.0667557866080948
  0.8886970945750486  0.8885490460700822  0.0663777207957174
  0.9258083430602045  0.9626827232578581  0.0672005482230116
  0.2697238271833773  0.1359045663215405  0.1703885702985473
  0.3388336488335795  0.1894715832106700  0.1705367359934136
  0.3515618263459483  0.2575192403694038  0.1707763076355130
  0.2964255662527865  0.2715260030468125  0.1703451930939411
  0.2275142321647339  0.2180576975550081  0.1698889087608048
  0.2148448926326157  0.1499526054171120  0.1702518033618791
  0.3277893568884991  0.3467999909807402  0.1711051277532104
  0.4154597087034326  0.3247855530312087  0.1718256662562554
  0.3194723188401037  0.4458808272355207  0.1702598842238440
  0.3953184974150503  0.5600266838676621  0.1710272866696509
  0.2786434546867910  0.4804860215329113  0.1681213290704136
  0.3262750917046040  0.5523270279198532  0.1685784012712559
  0.3036591563995178  0.6004410240755279  0.1670523035048441
  0.2321947451746403  0.5749451051898981  0.1653890078227683
  0.1847017970073833  0.5033510870817892  0.1651741741001234
  0.2073513917184964  0.4551040087048162  0.1663034554020054
  0.5346626576138331  0.3920957070982566  0.1711142943598339
  0.6106144917190177  0.5062378176516616  0.1706574669837585
  0.6261020707191265  0.3514671961380109  0.1674601571889413
  0.6975413953221404  0.3767446584501871  0.1660935836833121
  0.7451392861518532  0.4482977578150618  0.1658822213799726
  0.7226817668242330  0.4967257900030430  0.1670229319678883
  0.6514205837224522  0.4715492662569574  0.1686095935492767
  0.6036512703598889  0.3997064925595080  0.1688591061633065
  0.6022364597675123  0.6053495215430753  0.1714817954686036
  0.5145118355185389  0.6273677092337727  0.1722198537876321
  0.6335530395263718  0.6806335475566375  0.1709251211663167
  0.7024289283694765  0.7341523163325440  0.1705784981261264
  0.7150506404958438  0.8022326708323777  0.1712055209953893
  0.6601595594600558  0.8162644925651248  0.1715908507944052
  0.5910781052194056  0.7626593511219767  0.1715858056695967
  0.5783890242176294  0.6946208247492575  0.1714461136778333
  0.2697863246336940  0.1362018944833197  0.2891516343081637
  0.3388706669071975  0.1899442779986898  0.2892746218499477
  0.3512458643898022  0.2577298248376399  0.2890870888912082
  0.2961692685492981  0.2717250839215657  0.2886597023007070
  0.2274029217399790  0.2182888969531839  0.2884113901045697
  0.2149285510987589  0.1501527185795799  0.2887268802533781
  0.3276776996591295  0.3470944440242991  0.2879696486259608
  0.4151328659052205  0.3248793562312582  0.2885797041579682
  0.3194648870730707  0.4460784971838886  0.2869181650631998
  0.3956107539046492  0.5599403381903194  0.2876191915821513
  0.2788109154986316  0.4810218947506809  0.2859155194335320
  0.3267353886249623  0.5527332082067264  0.2863945576500428
  0.3046680991586583  0.6012000702411193  0.2849546414127869
  0.2332230732266183  0.5761582114611575  0.2830122106852960
  0.1855008527432342  0.5047247732457245  0.2825677016924096
  0.2077132384367572  0.4560583743287263  0.2840095763026494
  0.5341963624494700  0.3914927107518587  0.2876682736685740
  0.6103846444192171  0.5053314372944416  0.2872951335559446
  0.6250369845288235  0.3500919770416865  0.2854097682714411
  0.6964770829235141  0.3750389732512160  0.2838197958703048
  0.7442565419123143  0.4464527842251804  0.2835245801708727
  0.7221139150546977  0.4951854525109549  0.2848057398608294
  0.6510162268721534  0.4703317746167783  0.2864096961651736
  0.6030450789509288  0.3986289423414932  0.2866998158880271
  0.6021477870004777  0.6043330948648969  0.2884578347953000
  0.5146817363593756  0.6265889096034966  0.2889210221334764
  0.6336401234461738  0.6797031214276094  0.2893308028047724
  0.7024067522278152  0.7331182077049422  0.2893802401494175
  0.7149176278631023  0.8012604695890455  0.2899414778154604
  0.6600815800230152  0.8152453175103148  0.2903059325057698
  0.5909877485739367  0.7615275860651906  0.2901158210607152
  0.5785791029341049  0.6937239644937961  0.2896881172374925
  0.2697397347801904  0.1361388839078501  0.4107742408392462
  0.3388318077611116  0.1899070866678503  0.4103878875251046
  0.3512688963913710  0.2578216466597593  0.4092858147962095
  0.2961599641811352  0.2718353342476126  0.4089186112341220
  0.2272733955667078  0.2182749221003159  0.4096485672873169
  0.2147695665222675  0.1501204982158596  0.4104029258839811
  0.3276214000065386  0.3470848265565904  0.4056657596381066
  0.4150897950944928  0.3248422338425691  0.4061819601894669
  0.3194461834920812  0.4462631801982885  0.4044711129359992
  0.3956202116592894  0.5601552130395187  0.4050393457615293
  0.2787827818307792  0.4811919866240641  0.4059113939174213
  0.3267446140759644  0.5529406054925629  0.4062894218661399
  0.3045817887623041  0.6014846019002306  0.4058341229138551
  0.2331059012114817  0.5764544235740612  0.4045397404451369
  0.1852710255613880  0.5048647439369832  0.4041840380243837
  0.2075163442172163  0.4562024252180742  0.4050900846551261
  0.5343135944597394  0.3915499523680463  0.4051124931875725
  0.6105357709190407  0.5054323850656065  0.4048529072676800
  0.6252056508215277  0.3500784441511552  0.4063367291356646
  0.6966697147014876  0.3749974123953808  0.4053681285499735
  0.7445603719519139  0.4465703256369900  0.4051426187972451
  0.7224006014591035  0.4953156671407735  0.4058949834302204
  0.6511514342227129  0.4704427771321171  0.4064237577858902
  0.6031441682875187  0.3987031164684346  0.4066318754750863
  0.6023465801672230  0.6046091634850684  0.4061518614611384
  0.5148548578637843  0.6268479914087098  0.4065343486121678
  0.6337652826414572  0.6798370082035027  0.4096248298595452
  0.7026314514087246  0.7334020268219317  0.4106382915784118
  0.7151359814866278  0.8015481895370669  0.4116355313897507
  0.6601719143089974  0.8155415643954790  0.4119547277508744
  0.5910842248712299  0.7617687480561760  0.4112771476853212
  0.5786536929517686  0.6938521996478161  0.4099298880364033
  0.3999638375735896  0.3782060120992979  0.1722688385749806
  0.2901148134839137  0.3775073496453916  0.1700559585872412
  0.3900623289700835  0.4948448765021116  0.1719880623688990
  0.4775938809506963  0.3306447680039236  0.1713315182617456
  0.5400123828426568  0.4573271784701081  0.1721813476738623
  0.6399035564398657  0.5746140858323180  0.1704779858196459
  0.5300674370339252  0.5739732884362622  0.1725417002558873
  0.4523546370772482  0.6214793364802408  0.1715763688682020
  0.3997915115567355  0.3784344257259615  0.2880467907695283
  0.2899232153054437  0.3777402040227512  0.2871882042136512
  0.3901528306819992  0.4947544016405463  0.2876572011124782
  0.4769668263310454  0.3301994782177752  0.2882881739778639
  0.5396990992518443  0.4567043246172346  0.2877752885177530
  0.6399019311956341  0.5736778105088307  0.2877263222160678
  0.5300411398048547  0.5730469555616353  0.2883302527875267
  0.4528303930102495  0.6212378957878397  0.2884742689976448
  0.3996744018627830  0.3782689951053884  0.4038588102478569
  0.2899490371378691  0.3778827343477311  0.4054108627032728
  0.3900874020735854  0.4949622698813606  0.4033641432388452
  0.4770106752873864  0.3302579966983954  0.4063354203517218
  0.5398897959843589  0.4567642478299850  0.4034925911128369
  0.6400236130178384  0.5738092568027382  0.4059478716618717
  0.5303028016923493  0.5734500019990071  0.4041370009615210
  0.4529248661327985  0.6214302547359575  0.4065112288842507
  0.2580235190003382  0.0821583547813645  0.1704937230562842
  0.3814862815477555  0.1787709173740814  0.1707371963765975
  0.1853501370475507  0.2294857078915390  0.1695300135600953
  0.1615929481251582  0.1069183538552356  0.1701557615732713
  0.3406872271831717  0.6558675588653843  0.1672373912844739
  0.2127906958594524  0.6111925006678187  0.1640196939769243
  0.1293566787960880  0.4853830937192566  0.1638624574884059
  0.1709746014861405  0.3995266978865235  0.1659739065241030
  0.5889405531988183  0.2960694374355848  0.1675586322384748
  0.7167868127304262  0.3403685795231107  0.1649102413534907
  0.8004702701480049  0.4661330605483534  0.1647639916264663
  0.7592308201358303  0.5522573780014218  0.1669068110905031
  0.7446143503921311  0.7227494043074700  0.1699794757882443
  0.7683046866878394  0.8452620432928409  0.1711492626716467
  0.6718321303414714  0.8699939595366827  0.1720071616681545
  0.5483641096371034  0.7732557922523805  0.1719135715001572
  0.2582455322286527  0.0824756395613494  0.2890553166053896
  0.3818060874200547  0.1796408292787985  0.2892201271927333
  0.1851889460158365  0.2296554766175152  0.2876687201580500
  0.1616728710971586  0.1070279842489431  0.2882889336997861
  0.3421074019326070  0.6565484417030990  0.2848450751692581
  0.2141853749832655  0.6127142086502568  0.2813804630200736
  0.1301867837673638  0.4869697763295095  0.2805834441024445
  0.1711316969512705  0.4005055326204982  0.2831729021891431
  0.5875511287269652  0.2947531349089822  0.2852120810634486
  0.7154687715337188  0.3384316595025189  0.2823876783500244
  0.7995787070755054  0.4641581976651665  0.2818213857881378
  0.7587806463461544  0.5507209729770811  0.2841272029472742
  0.7446080251793398  0.7217302170993094  0.2887352712035824
  0.7681849067558902  0.8443697329982202  0.2897916412765234
  0.6716450269833740  0.8689765749218176  0.2904373783074867
  0.5480638433887403  0.7718439446968385  0.2900297214167034
  0.2581687680501101  0.0823984857641904  0.4099970007342807
  0.3817098648664566  0.1795102903890438  0.4096261824843402
  0.1849843161722732  0.2295208506886950  0.4082839076353125
  0.1615275842087967  0.1069697626683702  0.4093368966523455
  0.3419719313267384  0.6568563756886142  0.4050812030576149
  0.2140496262953072  0.6129808304193934  0.4024245814418729
  0.1299814645294976  0.4871499273783316  0.4017898028043872
  0.1708922100736773  0.4006595653921827  0.4037798733556849
  0.5877325499217522  0.2947306478784003  0.4054756239504928
  0.7156581118974221  0.3384063242256825  0.4034223612014064
  0.7998562476135122  0.4642265166493701  0.4030369607849791
  0.7591115073277979  0.5508394295125155  0.4047284862464234
  0.7449276662787268  0.7221617753803196  0.4093392596360947
  0.7683950068430383  0.8446944248438849  0.4108281642738286
  0.6717500404742888  0.8692915966919958  0.4113972541536569
  0.5482083160599199  0.7721711970457680  0.4104878014137150
  0.4650863861514208  0.4761784644037454  0.1740350606387428
  0.4649396362044967  0.4757951947292175  0.2880633345598765
  0.4650073780856032  0.4758960310592694  0.4004953563029059
 
  0.00000000E+00  0.00000000E+00  0.00000000E+00
  0.00000000E+00  0.00000000E+00  0.00000000E+00
  0.00000000E+00  0.00000000E+00  0.00000000E+00
  0.00000000E+00  0.00000000E+00  0.00000000E+00
  0.00000000E+00  0.00000000E+00  0.00000000E+00
  0.00000000E+00  0.00000000E+00  0.00000000E+00
  0.00000000E+00  0.00000000E+00  0.00000000E+00
  0.00000000E+00  0.00000000E+00  0.00000000E+00
  0.00000000E+00  0.00000000E+00  0.00000000E+00
  0.00000000E+00  0.00000000E+00  0.00000000E+00
  0.00000000E+00  0.00000000E+00  0.00000000E+00
  0.00000000E+00  0.00000000E+00  0.00000000E+00
  0.00000000E+00  0.00000000E+00  0.00000000E+00
  0.00000000E+00  0.00000000E+00  0.00000000E+00
  0.00000000E+00  0.00000000E+00  0.00000000E+00
  0.00000000E+00  0.00000000E+00  0.00000000E+00
  0.00000000E+00  0.00000000E+00  0.00000000E+00
  0.00000000E+00  0.00000000E+00  0.00000000E+00
  0.00000000E+00  0.00000000E+00  0.00000000E+00
  0.00000000E+00  0.00000000E+00  0.00000000E+00
  0.00000000E+00  0.00000000E+00  0.00000000E+00
  0.00000000E+00  0.00000000E+00  0.00000000E+00
  0.00000000E+00  0.00000000E+00  0.00000000E+00
  0.00000000E+00  0.00000000E+00  0.00000000E+00
  0.00000000E+00  0.00000000E+00  0.00000000E+00
  0.00000000E+00  0.00000000E+00  0.00000000E+00
  0.00000000E+00  0.00000000E+00  0.00000000E+00
  0.00000000E+00  0.00000000E+00  0.00000000E+00
  0.00000000E+00  0.00000000E+00  0.00000000E+00
  0.00000000E+00  0.00000000E+00  0.00000000E+00
  0.00000000E+00  0.00000000E+00  0.00000000E+00
  0.00000000E+00  0.00000000E+00  0.00000000E+00
  0.00000000E+00  0.00000000E+00  0.00000000E+00
  0.00000000E+00  0.00000000E+00  0.00000000E+00
  0.00000000E+00  0.00000000E+00  0.00000000E+00
  0.00000000E+00  0.00000000E+00  0.00000000E+00
  0.00000000E+00  0.00000000E+00  0.00000000E+00
  0.00000000E+00  0.00000000E+00  0.00000000E+00
  0.00000000E+00  0.00000000E+00  0.00000000E+00
  0.00000000E+00  0.00000000E+00  0.00000000E+00
  0.00000000E+00  0.00000000E+00  0.00000000E+00
  0.00000000E+00  0.00000000E+00  0.00000000E+00
  0.00000000E+00  0.00000000E+00  0.00000000E+00
  0.00000000E+00  0.00000000E+00  0.00000000E+00
  0.00000000E+00  0.00000000E+00  0.00000000E+00
  0.00000000E+00  0.00000000E+00  0.00000000E+00
  0.00000000E+00  0.00000000E+00  0.00000000E+00
  0.00000000E+00  0.00000000E+00  0.00000000E+00
  0.00000000E+00  0.00000000E+00  0.00000000E+00
  0.00000000E+00  0.00000000E+00  0.00000000E+00
  0.00000000E+00  0.00000000E+00  0.00000000E+00
  0.00000000E+00  0.00000000E+00  0.00000000E+00
  0.00000000E+00  0.00000000E+00  0.00000000E+00
  0.00000000E+00  0.00000000E+00  0.00000000E+00
  0.00000000E+00  0.00000000E+00  0.00000000E+00
  0.00000000E+00  0.00000000E+00  0.00000000E+00
  0.00000000E+00  0.00000000E+00  0.00000000E+00
  0.00000000E+00  0.00000000E+00  0.00000000E+00
  0.00000000E+00  0.00000000E+00  0.00000000E+00
  0.00000000E+00  0.00000000E+00  0.00000000E+00
  0.00000000E+00  0.00000000E+00  0.00000000E+00
  0.00000000E+00  0.00000000E+00  0.00000000E+00
  0.00000000E+00  0.00000000E+00  0.00000000E+00
  0.00000000E+00  0.00000000E+00  0.00000000E+00
  0.00000000E+00  0.00000000E+00  0.00000000E+00
  0.00000000E+00  0.00000000E+00  0.00000000E+00
  0.00000000E+00  0.00000000E+00  0.00000000E+00
  0.00000000E+00  0.00000000E+00  0.00000000E+00
  0.00000000E+00  0.00000000E+00  0.00000000E+00
  0.00000000E+00  0.00000000E+00  0.00000000E+00
  0.00000000E+00  0.00000000E+00  0.00000000E+00
  0.00000000E+00  0.00000000E+00  0.00000000E+00
  0.00000000E+00  0.00000000E+00  0.00000000E+00
  0.00000000E+00  0.00000000E+00  0.00000000E+00
  0.00000000E+00  0.00000000E+00  0.00000000E+00
  0.00000000E+00  0.00000000E+00  0.00000000E+00
  0.00000000E+00  0.00000000E+00  0.00000000E+00
  0.00000000E+00  0.00000000E+00  0.00000000E+00
  0.00000000E+00  0.00000000E+00  0.00000000E+00
  0.00000000E+00  0.00000000E+00  0.00000000E+00
  0.00000000E+00  0.00000000E+00  0.00000000E+00
  0.00000000E+00  0.00000000E+00  0.00000000E+00
  0.00000000E+00  0.00000000E+00  0.00000000E+00
  0.00000000E+00  0.00000000E+00  0.00000000E+00
  0.00000000E+00  0.00000000E+00  0.00000000E+00
  0.00000000E+00  0.00000000E+00  0.00000000E+00
  0.00000000E+00  0.00000000E+00  0.00000000E+00
  0.00000000E+00  0.00000000E+00  0.00000000E+00
  0.00000000E+00  0.00000000E+00  0.00000000E+00
  0.00000000E+00  0.00000000E+00  0.00000000E+00
  0.00000000E+00  0.00000000E+00  0.00000000E+00
  0.00000000E+00  0.00000000E+00  0.00000000E+00
  0.00000000E+00  0.00000000E+00  0.00000000E+00
  0.00000000E+00  0.00000000E+00  0.00000000E+00
  0.00000000E+00  0.00000000E+00  0.00000000E+00
  0.00000000E+00  0.00000000E+00  0.00000000E+00
  0.00000000E+00  0.00000000E+00  0.00000000E+00
  0.00000000E+00  0.00000000E+00  0.00000000E+00
  0.00000000E+00  0.00000000E+00  0.00000000E+00
  0.00000000E+00  0.00000000E+00  0.00000000E+00
  0.00000000E+00  0.00000000E+00  0.00000000E+00
  0.00000000E+00  0.00000000E+00  0.00000000E+00
  0.00000000E+00  0.00000000E+00  0.00000000E+00
  0.00000000E+00  0.00000000E+00  0.00000000E+00
  0.00000000E+00  0.00000000E+00  0.00000000E+00
  0.00000000E+00  0.00000000E+00  0.00000000E+00
  0.00000000E+00  0.00000000E+00  0.00000000E+00
  0.00000000E+00  0.00000000E+00  0.00000000E+00
  0.00000000E+00  0.00000000E+00  0.00000000E+00
  0.00000000E+00  0.00000000E+00  0.00000000E+00
  0.00000000E+00  0.00000000E+00  0.00000000E+00
  0.00000000E+00  0.00000000E+00  0.00000000E+00
  0.00000000E+00  0.00000000E+00  0.00000000E+00
  0.00000000E+00  0.00000000E+00  0.00000000E+00
  0.00000000E+00  0.00000000E+00  0.00000000E+00
  0.00000000E+00  0.00000000E+00  0.00000000E+00
  0.00000000E+00  0.00000000E+00  0.00000000E+00
  0.00000000E+00  0.00000000E+00  0.00000000E+00
  0.00000000E+00  0.00000000E+00  0.00000000E+00
  0.00000000E+00  0.00000000E+00  0.00000000E+00
  0.00000000E+00  0.00000000E+00  0.00000000E+00
  0.00000000E+00  0.00000000E+00  0.00000000E+00
  0.00000000E+00  0.00000000E+00  0.00000000E+00
  0.00000000E+00  0.00000000E+00  0.00000000E+00
  0.00000000E+00  0.00000000E+00  0.00000000E+00
  0.00000000E+00  0.00000000E+00  0.00000000E+00
  0.00000000E+00  0.00000000E+00  0.00000000E+00
  0.00000000E+00  0.00000000E+00  0.00000000E+00
  0.00000000E+00  0.00000000E+00  0.00000000E+00
  0.00000000E+00  0.00000000E+00  0.00000000E+00
  0.00000000E+00  0.00000000E+00  0.00000000E+00
  0.00000000E+00  0.00000000E+00  0.00000000E+00
  0.00000000E+00  0.00000000E+00  0.00000000E+00
  0.00000000E+00  0.00000000E+00  0.00000000E+00
  0.00000000E+00  0.00000000E+00  0.00000000E+00
  0.00000000E+00  0.00000000E+00  0.00000000E+00
  0.00000000E+00  0.00000000E+00  0.00000000E+00
  0.00000000E+00  0.00000000E+00  0.00000000E+00
  0.00000000E+00  0.00000000E+00  0.00000000E+00
  0.00000000E+00  0.00000000E+00  0.00000000E+00
  0.00000000E+00  0.00000000E+00  0.00000000E+00
  0.00000000E+00  0.00000000E+00  0.00000000E+00
  0.00000000E+00  0.00000000E+00  0.00000000E+00
  0.00000000E+00  0.00000000E+00  0.00000000E+00
  0.00000000E+00  0.00000000E+00  0.00000000E+00
  0.00000000E+00  0.00000000E+00  0.00000000E+00
  0.00000000E+00  0.00000000E+00  0.00000000E+00
  0.00000000E+00  0.00000000E+00  0.00000000E+00
  0.00000000E+00  0.00000000E+00  0.00000000E+00
  0.00000000E+00  0.00000000E+00  0.00000000E+00
  0.00000000E+00  0.00000000E+00  0.00000000E+00
  0.00000000E+00  0.00000000E+00  0.00000000E+00
  0.00000000E+00  0.00000000E+00  0.00000000E+00
  0.00000000E+00  0.00000000E+00  0.00000000E+00
  0.00000000E+00  0.00000000E+00  0.00000000E+00
  0.00000000E+00  0.00000000E+00  0.00000000E+00
  0.00000000E+00  0.00000000E+00  0.00000000E+00
  0.00000000E+00  0.00000000E+00  0.00000000E+00
  0.00000000E+00  0.00000000E+00  0.00000000E+00
  0.00000000E+00  0.00000000E+00  0.00000000E+00
  0.00000000E+00  0.00000000E+00  0.00000000E+00
  0.00000000E+00  0.00000000E+00  0.00000000E+00
  0.00000000E+00  0.00000000E+00  0.00000000E+00
  0.00000000E+00  0.00000000E+00  0.00000000E+00
  0.00000000E+00  0.00000000E+00  0.00000000E+00
  0.00000000E+00  0.00000000E+00  0.00000000E+00
  0.00000000E+00  0.00000000E+00  0.00000000E+00
  0.00000000E+00  0.00000000E+00  0.00000000E+00
  0.00000000E+00  0.00000000E+00  0.00000000E+00
  0.00000000E+00  0.00000000E+00  0.00000000E+00
  0.00000000E+00  0.00000000E+00  0.00000000E+00
  0.00000000E+00  0.00000000E+00  0.00000000E+00
  0.00000000E+00  0.00000000E+00  0.00000000E+00
  0.00000000E+00  0.00000000E+00  0.00000000E+00
  0.00000000E+00  0.00000000E+00  0.00000000E+00
  0.00000000E+00  0.00000000E+00  0.00000000E+00
  0.00000000E+00  0.00000000E+00  0.00000000E+00
  0.00000000E+00  0.00000000E+00  0.00000000E+00
  0.00000000E+00  0.00000000E+00  0.00000000E+00
  0.00000000E+00  0.00000000E+00  0.00000000E+00
  0.00000000E+00  0.00000000E+00  0.00000000E+00
  0.00000000E+00  0.00000000E+00  0.00000000E+00
  0.00000000E+00  0.00000000E+00  0.00000000E+00
  0.00000000E+00  0.00000000E+00  0.00000000E+00
  0.00000000E+00  0.00000000E+00  0.00000000E+00
  0.00000000E+00  0.00000000E+00  0.00000000E+00
  0.00000000E+00  0.00000000E+00  0.00000000E+00
  0.00000000E+00  0.00000000E+00  0.00000000E+00
  0.00000000E+00  0.00000000E+00  0.00000000E+00
  0.00000000E+00  0.00000000E+00  0.00000000E+00
  0.00000000E+00  0.00000000E+00  0.00000000E+00